    83
 Generated by Multiwfn
C       0.21212200     -0.01475500     -1.39523000
C       1.58413400     -0.05716200     -0.74651500
C       1.55494500     -0.05599600      0.59973800
C       0.16066200     -0.01258800      1.19419200
C      -0.56680100     -1.19478600     -0.78616900
C      -0.62843400     -1.17080800      0.57546400
C      -0.55393200      1.19294000      0.57502200
C      -0.49114800      1.21226700     -0.78664000
C      -1.17955700      2.24666800     -1.55307300
C      -1.47431300      2.02634700      1.31667100
C       2.78819900     -0.09254700      1.41253200
C       2.86058700     -0.09559700     -1.49390600
C      -1.32023800     -2.18314000     -1.55230200
C      -2.13536000     -3.15936800     -0.74507600
C      -2.25591500     -3.05354000      0.61396600
C      -1.60084800     -1.94295800      1.31713200
O      -1.31131200     -2.24137900     -2.77692800
O      -1.93174000     -1.61911900      2.49318200
O      -1.16750400      2.30353700     -2.77774400
O      -1.82527900      1.72475800      2.49283000
O       2.90152500     -0.09761200     -2.70935600
O       2.75773800     -0.09152200      2.63178100
S      -3.23342200     -4.07661300      1.71283900
S      -2.91498600     -4.31785100     -1.82695700
C      -3.63561300     -5.48418900     -0.69919500
C      -3.73842400     -5.40865000      0.65155400
C      -4.19727500     -6.64256100     -1.46003500
C      -4.36937300     -6.51614800      1.44588300
O      -4.13137400     -6.65310900     -2.67746000
O      -4.45153800     -6.41722500      2.65788900
C      -4.83847100     -7.74590900     -0.69442400
C      -4.89547100     -7.70404600      0.70948700
C      -5.38619500     -8.83295100     -1.38513800
C      -5.46772100     -8.77449500      1.41349100
C      -5.97026400     -9.88781300     -0.68036900
C      -5.99522400     -9.87167600      0.72129400
C      -2.05643300      3.17657100      0.61314100
C      -1.92954600      3.27381400     -0.74597400
S      -2.63305400      4.47996000     -1.82788200
S      -2.96583300      4.26114700      1.71141800
C      -3.37818000      5.62517300      0.65070500
C      -3.27094200      5.69340000     -0.70009800
C      -3.75165600      6.88767500     -1.46080600
C      -3.93123000      6.77338900      1.44524400
O      -3.68612900      6.89346500     -2.67827900
O      -4.02019300      6.68020600      2.65721700
C      -4.37380500      7.99495800      0.70899300
C      -4.31427300      8.03284900     -0.69492000
C      -4.78527500      9.15530200     -1.38549900
C      -4.87034800      9.10246300      1.41315300
C      -5.32045200     10.23367500      0.72108200
C      -5.29452000     10.24809200     -0.68056900
C       4.12800900     -0.13214700     -0.68268500
C       4.09546000     -0.13080200      0.67304100
S       5.45659200     -0.16992300      1.82043400
S       5.53425800     -0.17312400     -1.76569600
C       6.89189200     -0.20877800     -0.61892800
C       6.86672600     -0.20772400      0.73543800
C       8.13427300     -0.24147400      1.53813900
C       8.18550200     -0.24349800     -1.37216200
O       8.16850200     -0.24356700     -2.59094300
O       8.07117400     -0.23973100      2.75525500
C       9.45485400     -0.27706500     -0.59666000
C       9.43394900     -0.27629600      0.80893800
C      10.63961200     -0.30845100      1.52420600
C      10.67742500     -0.30974200     -1.27706300
C      11.87586900     -0.34161700     -0.56009400
C      11.86092500     -0.34113900      0.84148200
H       0.23053400     -0.01559800     -2.48854200
H       0.18912300     -0.01324500      2.28746700
H      -5.34107100     -8.82981300     -2.47541500
H      -5.49122500     -8.72333900      2.50349600
H      -6.41242800    -10.72583000     -1.22857400
H      -6.42972700    -10.72518700      1.26244300
H      -4.74070800      9.14906600     -2.47578000
H      -4.89724500      9.05294000      2.50315500
H      -5.69461800     11.11531500      1.26221900
H      -5.67745700     11.11468400     -1.22876800
H      10.59511300     -0.30717600      2.61468800
H      10.66455300     -0.30953400     -2.36820100
H      12.82839100     -0.36703600     -1.09789500
H      12.81113900     -0.36650600      1.39303200
Li     -2.02988700      0.05771200      3.24396100
