    92
 Generated by Multiwfn
C       0.22869200     -0.30331400      1.37855700
C       1.63803400     -0.56153200      0.80716300
C       1.65774000     -0.49008700     -0.57835200
C       0.27179500     -0.31561200     -1.16645500
C      -0.29109800      1.04005900      0.76996000
C      -0.22142500      1.03945900     -0.63041400
C      -0.74014300     -1.32474900     -0.60233200
C      -0.76981400     -1.32612900      0.79680100
C      -1.86265300     -1.87338800      1.53401300
C      -1.78482500     -1.87843300     -1.37186800
C       2.83349000     -0.26813100     -1.37074300
C       2.85915400     -0.69458700      1.54113400
C      -0.99486200      2.06763900      1.42163400
C      -1.47430500      3.15423800      0.60587200
C      -1.28953200      3.19183000     -0.78926000
C      -0.67063200      2.08225300     -1.46070400
O      -1.28763600      2.00040200      2.74485600
O      -0.55730800      1.92347500     -2.79933600
O      -2.07955200     -1.57495300      2.78811900
O      -1.90258800     -1.61955600     -2.71034700
O       2.92018200     -0.84916800      2.83866600
O       2.72701500      0.18976400     -2.59634000
S      -2.04361300      4.50287000     -1.76407400
S      -2.55614600      4.33717300      1.45423200
C      -2.41166700      5.94217000      0.65426800
C      -2.22972100      5.99579800     -0.75052700
C      -2.69276800      7.08869700      1.41737000
C      -2.33332600      7.20561800     -1.47934300
O      -2.88963700      7.02646400      2.72540800
O      -2.12778000      7.24124000     -2.76940600
C      -2.85419300      8.35250000      0.70116500
C      -2.72019900      8.40334800     -0.72848500
C      -3.19149300      9.57452300      1.36855400
C      -3.01511400      9.63098400     -1.39850600
C      -3.45570500     10.76775500      0.69876700
C      -3.40141400     10.78836000     -0.72169700
C      -2.77585200     -2.61497700     -0.65565700
C      -2.78569500     -2.65187100      0.74751600
S      -4.18890000     -3.39400600      1.59520500
S      -4.16632200     -3.26885600     -1.61533000
C      -4.72586400     -4.75419400     -0.79357200
C      -4.73820600     -4.79762700      0.59857400
C      -5.29293600     -5.90662200      1.32939800
C      -5.31653600     -5.80649600     -1.62099200
O      -5.17191800     -5.97603000      2.61499100
O      -5.26950600     -5.77434500     -2.86450400
C      -6.03162100     -6.88830700     -0.86629100
C      -6.02083900     -6.92611200      0.56097100
C      -6.75135800     -7.95484200      1.21968900
C      -6.75637200     -7.88857800     -1.56491600
C      -7.47756700     -8.89243500     -0.90273600
C      -7.48079400     -8.91512100      0.51342900
C       4.05958800     -0.63302000      0.74187500
C       4.06036400     -0.44972300     -0.65404200
S       5.62402600     -0.18150000     -1.51678600
S       5.55410200     -0.56413300      1.73029500
C       6.91143900     -1.16128300      0.77214200
C       6.93010300     -1.05091700     -0.61374000
C       8.05953000     -1.49484600     -1.40003600
C       8.06162400     -1.64668500      1.53829400
O       8.02609100     -1.74935500      2.77584800
O       7.99799400     -1.50042400     -2.68661900
C       9.28609800     -1.96215800      0.74243600
C       9.28242100     -1.90844100     -0.68172200
C      10.48451300     -2.23399500     -1.37440800
C      10.48205800     -2.30745100      1.41083200
C      11.66096000     -2.59941300      0.71741300
C      11.66463400     -2.57404600     -0.69693700
H       0.27274700     -0.30950300      2.47478700
H       0.32958900     -0.40143200     -2.25925800
H      -3.22861300      9.58025000      2.46547900
H      -2.93843400      9.61911800     -2.48790500
H      -3.70035100     11.71319700      1.24102600
H      -3.68018200     11.73251800     -1.24986200
H      -6.73393900     -7.95748800      2.31149500
H      -6.73651100     -7.83573400     -2.65602500
H      -8.05467700     -9.67705000     -1.45160200
H      -8.07544900     -9.69622600      1.03924700
H      10.45797500     -2.19696000     -2.46556100
H      10.44869600     -2.33011200      2.50225700
H      12.59639300     -2.84497600      1.26123900
H      12.61682600     -2.82549700     -1.22954800
Li     -1.54092000      0.25018300     -2.86359600
Li     -1.74228200      0.18429800      3.11468600
Li     -1.50509000      3.63447000      3.40649100
Li     -2.73233100     -3.03210900     -3.45705400
Li      1.31227300      1.34352500     -2.91201600
Li      4.38760200     -1.37040000      3.61738300
Li     -4.09101300     -4.85955900      3.44688500
Li      6.44731500     -1.19428300     -3.48320000
Li     -1.50063700      5.89138000     -3.63578200
Li     -3.52475600      7.88727400      3.96365400
