    84
 Generated by Multiwfn
C      -0.28381500     -0.01420300      1.29061800
C      -1.66313000     -0.04239900      0.67355900
C      -1.66312900     -0.04236200     -0.67360000
C      -0.28385300     -0.01419200     -1.29071200
C       0.52827600     -1.17716100      0.69226300
C       0.52827200     -1.17720100     -0.69237100
C       0.47827600      1.18223500     -0.69236700
C       0.47832500      1.18216000      0.69225500
C       1.43511200      1.95286000      1.42987500
C       1.43493600      1.95308300     -1.43002400
C      -2.92451300     -0.06575300     -1.45151400
C      -2.92450500     -0.06575300      1.45157700
C       1.51770600     -1.90579700      1.42982500
C       2.24814100     -2.95609400      0.68710800
C       2.24802300     -2.95617800     -0.68713500
C       1.51756000     -1.90599000     -1.42993500
O       1.81545700     -1.62865300      2.63363900
O       1.81505100     -1.62911200     -2.63388400
O       1.74463400      1.68883300      2.63364400
O       1.74429500      1.68928200     -2.63389800
O      -2.93136300     -0.06596400      2.66993400
O      -2.93153400     -0.06604400     -2.66987600
S       3.18272200     -4.03560900     -1.76226100
S       3.18291100     -4.03544800      1.76218100
C       3.69729500     -5.35086400      0.67936100
C       3.69724400     -5.35090100     -0.67939600
C       4.22455700     -6.52234800      1.45817000
C       4.22452200     -6.52241400     -1.45817000
O       4.24204700     -6.48162300      2.67619600
O       4.24180400     -6.48181700     -2.67620200
C       4.74649400     -7.70559600      0.70290700
C       4.74648900     -7.70562300     -0.70287300
C       5.25373200     -8.81607800      1.39772600
C       5.25375200     -8.81611200     -1.39766600
C       5.75765700     -9.92384100      0.70217400
C       5.75768700     -9.92385200     -0.70208400
C       2.11871300      3.03416300     -0.68714900
C       2.11884400      3.03408800      0.68707200
S       3.00512800      4.15376800      1.76179700
S       3.00492300      4.15397900     -1.76191200
C       3.45598700      5.49255500     -0.67940600
C       3.45606200      5.49252400      0.67935800
C       3.92702100      6.68765900      1.45822400
C       3.92688600      6.68777800     -1.45822300
O       3.94680900      6.64771900      2.67623900
O       3.94642000      6.64799000     -2.67624100
C       4.39160900      7.89451800     -0.70286000
C       4.39167300      7.89447400      0.70292000
C       4.84530100      9.02786400      1.39776000
C       4.84517900      9.02793600     -1.39767700
C       5.29556100     10.15843500     -0.70206400
C       5.29561600     10.15841100      0.70216800
C      -4.21811500     -0.08910600      0.67781400
C      -4.21811000     -0.08911300     -0.67768200
S      -5.61216000     -0.11402200     -1.78893400
S      -5.61216700     -0.11399500      1.78905900
C      -7.00598900     -0.13689600      0.67741500
C      -7.00597400     -0.13691100     -0.67730500
C      -8.29151800     -0.15820100     -1.45516200
C      -8.29153500     -0.15816500      1.45525800
O      -8.25254500     -0.15764500      2.67308900
O      -8.25251000     -0.15775600     -2.67299300
C      -9.58188600     -0.17951500      0.70300000
C      -9.58187500     -0.17954300     -0.70292200
C     -10.80027100     -0.19979100     -1.39902700
C     -10.80028700     -0.19972900      1.39908900
C     -12.01493600     -0.21990100      0.70172800
C     -12.01493000     -0.21993200     -0.70167900
H      -0.33222400     -0.01520500      2.38354300
H      -0.33214600     -0.01511500     -2.38364600
H       5.24494600     -8.78699700      2.48886600
H       5.24496700     -8.78706200     -2.48880600
H       6.15805500    -10.79718200      1.24559300
H       6.15815600    -10.79717700     -1.24547600
H       4.83803200      8.99835400      2.48889600
H       4.83779800      8.99849600     -2.48881500
H       5.65378400     11.04981100     -1.24546800
H       5.65387300     11.04979400      1.24557000
H     -10.77121700     -0.19935000     -2.49011700
H     -10.77124600     -0.19924400      2.49017900
H     -12.97264100     -0.23578500      1.24550600
H     -12.97262900     -0.23584300     -1.24547400
Li      1.87798900      0.03211200     -3.40022700
Li      1.87781700      0.03212000      3.40098400
