    85
 Generated by Multiwfn
C      -0.25697600     -0.04379200      1.26835200
C      -1.64626200     -0.09740500      0.66155700
C      -1.64929400     -0.08150600     -0.68547900
C      -0.26851000     -0.01820600     -1.30269100
C       0.56567700     -1.21142700      0.66777100
C       0.56561000     -1.18466300     -0.72895800
C       0.44266300      1.20495300     -0.69978000
C       0.44854100      1.19516800      0.67568000
C       1.38775500      1.99161700      1.41654500
C       1.36175900      2.02886600     -1.44278300
C      -2.91391500     -0.09901800     -1.45918400
C      -2.90369700     -0.14393100      1.44406700
C       1.48121500     -2.00386300      1.39012800
C       2.30101500     -2.87023100      0.61234900
C       2.28941800     -2.87233600     -0.78559700
C       1.51394400     -1.89556100     -1.51987400
O       1.64779200     -1.88905100      2.73682100
O       1.72804700     -1.62336100     -2.76317800
O       1.70839500      1.68714000      2.61548600
O       1.64895400      1.77808600     -2.65738700
O      -2.90833500     -0.17759400      2.66287400
O      -2.93052000     -0.08228100     -2.67671700
S       3.26134500     -3.97273600     -1.80510400
S       3.52731700     -3.80718800      1.54198300
C       3.73354400     -5.31308700      0.61072600
C       3.70185100     -5.30963300     -0.75773600
C       4.12230300     -6.49504100      1.41801600
C       4.15337000     -6.53167900     -1.51958700
O       4.05725900     -6.46943600      2.64269500
O       4.14649100     -6.53973600     -2.73590900
C       4.64208000     -7.69491900      0.67865800
C       4.65678700     -7.70399200     -0.72966600
C       5.14352900     -8.80646200      1.38212200
C       5.16727300     -8.82119200     -1.41020900
C       5.66347300     -9.91772800      0.69902900
C       5.67062300     -9.92154200     -0.70567200
C       2.03454800      3.09802700     -0.69385000
C       2.04705800      3.08205800      0.68665200
S       2.92990900      4.21057000      1.76200800
S       2.90093500      4.24262100     -1.76352800
C       3.39368800      5.55607700     -0.67391300
C       3.40281300      5.54680200      0.68688500
C       3.90621900      6.72643600      1.46847700
C       3.89257800      6.74312200     -1.44712000
O       3.93140100      6.68380000      2.68678700
O       3.90456200      6.71356500     -2.66583500
C       4.39298300      7.93460900     -0.68822300
C       4.39702100      7.92854100      0.71711500
C       4.87880400      9.05009300      1.41393700
C       4.87365300      9.05897100     -1.38027000
C       5.35396600     10.17649300     -0.68316200
C       5.35489600     10.17317000      0.72150700
C      -4.20260600     -0.14764900      0.67457900
C      -4.20705900     -0.13022100     -0.67986200
S      -5.60574100     -0.13718500     -1.78747200
S      -5.59980600     -0.17913000      1.78683000
C      -6.99926800     -0.15062800      0.67918300
C      -7.00033500     -0.13695800     -0.67593500
C      -8.28776900     -0.12199500     -1.45294800
C      -8.28616600     -0.14625100      1.45713800
O      -8.24858500     -0.16261000      2.67494600
O      -8.25045100     -0.11652900     -2.67065700
C      -9.57927900     -0.12446000      0.70525100
C      -9.57972800     -0.11631200     -0.70056100
C     -10.79917000     -0.10284700     -1.39649300
C     -10.79948100     -0.11471200      1.40033600
C     -12.01563900     -0.09871100      0.70348200
C     -12.01553800     -0.09495000     -0.70051300
H      -0.31556500     -0.04596800      2.36198000
H      -0.31983500     -0.01374900     -2.39475600
H       5.12359400     -8.77131900      2.47310700
H       5.16436100     -8.80094200     -2.50154100
H       6.07537500    -10.79257700      1.24173000
H       6.07639800    -10.78987400     -1.24930400
H       4.87250800      9.01704700      2.50505400
H       4.86257600      9.03232000     -2.47148600
H       5.73502200     11.06018400     -1.22562000
H       5.73417000     11.05745600      1.26538100
H     -10.76924400     -0.09847100     -2.48760600
H     -10.77071100     -0.12014500      2.49148800
H     -12.97595700     -0.08881100      1.24620500
H     -12.97501000     -0.08615200     -1.24474500
Li      1.83777200      0.06674600     -3.38037300
Li      1.80049300     -0.07956800      3.15125400
Li      2.09478400     -3.49341400      3.40191900
