    86
 Generated by Multiwfn
C       0.26474600     -0.04149600     -1.28305400
C       1.65280100     -0.06197300     -0.67362300
C       1.65347100     -0.03010300      0.67426800
C       0.26590600      0.01197400      1.28368700
C      -0.53236400     -1.22034300     -0.67835600
C      -0.54009600     -1.18070200      0.71645700
C      -0.47497600      1.22700500      0.67889900
C      -0.48434900      1.18764500     -0.71591100
C      -1.40536900      1.94011800     -1.50437300
C      -1.34179700      2.07925600      1.39899400
C       2.91657000     -0.02570500      1.45078000
C       2.91464900     -0.11800600     -1.45017300
C      -1.43892000     -2.03019100     -1.39869100
C      -2.25179600     -2.89949300     -0.61971000
C      -2.25306400     -2.88626100      0.78070600
C      -1.49672700     -1.88816200      1.50463900
O      -1.59701500     -1.92490800     -2.74569300
O      -1.73014700     -1.57806900      2.73877500
O      -1.65296300      1.64177400     -2.73869800
O      -1.50494300      1.98135900      2.74605400
O       2.92931000     -0.17031000     -2.66788700
O       2.93339800      0.02593700      2.66850200
S      -3.22137900     -3.99237300      1.80042800
S      -3.45951800     -3.85547600     -1.55613700
C      -3.70404300     -5.34554600     -0.60906000
C      -3.67865500     -5.33171800      0.76159400
C      -4.12491100     -6.52060400     -1.40805500
C      -4.15649500     -6.54052600      1.52926400
O      -4.07084300     -6.50167100     -2.63412300
O      -4.15411300     -6.54378600      2.74631700
C      -4.66518200     -7.70934300     -0.66252100
C      -4.67958400     -7.71208600      0.74556800
C      -5.18580100     -8.81612700     -1.36109200
C      -5.20838200     -8.82058800      1.42960100
C      -5.72297700     -9.91799000     -0.67521700
C      -5.72938800     -9.91779400      0.73035000
C      -2.11157400      2.98656500      0.61966300
C      -2.11280800      2.97354900     -0.78075500
S      -3.02510800      4.12612400     -1.80055200
S      -3.27192600      4.00061400      1.55460500
C      -3.43865800      5.50201100      0.60865600
C      -3.41353400      5.48716700     -0.76198700
C      -3.82855100      6.71893300     -1.52957900
C      -3.79797700      6.69712900      1.40786100
O      -3.82597200      6.72219400     -2.74662700
O      -3.74461700      6.67546000      2.63393000
C      -4.27649800      7.91198700      0.66242100
C      -4.29082500      7.91555500     -0.74569100
C      -4.76215400      9.04965600     -1.42965800
C      -4.73963200      9.04389900      1.36110900
C      -5.21967700     10.17177900      0.67527300
C      -5.22618600     10.17197000     -0.73026100
C       4.21415300     -0.11569300     -0.67619400
C       4.21490600     -0.07959200      0.67672100
S       5.61785600     -0.08140700      1.78503900
S       5.61601100     -0.16905800     -1.78460400
C       7.01715600     -0.16565700     -0.67762800
C       7.01777100     -0.13675400      0.67789500
C       8.30686700     -0.14936700      1.45472300
C       8.30574000     -0.20102100     -1.45460300
O       8.26969000     -0.22374600     -2.67220500
O       8.27182000     -0.12546000      2.67233400
C       9.60109200     -0.20812700     -0.70280900
C       9.60149700     -0.19058100      0.70279100
C      10.82289600     -0.20927100      1.39751300
C      10.82225800     -0.23511400     -1.39766400
C      12.04042000     -0.24915600     -0.70249300
C      12.04065400     -0.24076300      0.70221000
H       0.32499200     -0.05053000     -2.37587000
H       0.32662500      0.01812500      2.37651400
H      -5.16568300     -8.78399600     -2.45222300
H      -5.20479800     -8.79567200      2.52094500
H      -6.14904900    -10.78910500     -1.21622000
H      -6.14899300    -10.78231300      1.27482400
H      -4.75993100      9.02465500     -2.52100000
H      -4.72113600      9.01072000      2.45223400
H      -5.60049700     11.06341700      1.21633400
H      -5.60103700     11.05673400     -1.27467200
H      10.79342600     -0.19807200      2.48867100
H      10.79227100     -0.24521300     -2.48881900
H      13.00276800     -0.26621100     -1.24566900
H      13.00302600     -0.25968200      1.24528300
Li     -1.75774600      0.17126100      3.19378800
Li     -1.76358700     -0.10379000     -3.19465200
Li     -2.03413200     -3.52069900     -3.41571300
Li     -1.86433700      3.59659700      3.41618400
