    87
 Generated by Multiwfn
C       0.18710800      0.24792000     -1.43160400
C       1.56514700      0.57609200     -0.84997900
C       1.58876700      0.53494600      0.51391500
C       0.23055100      0.27797100      1.11950700
C      -0.25594100     -1.11068900     -0.81551500
C      -0.18552800     -1.09786500      0.57766100
C      -0.82924200      1.22168800      0.55039200
C      -0.86249900      1.20648800     -0.84154900
C      -1.99877600      1.66067800     -1.57751000
C      -1.90686700      1.71663600      1.31680000
C       2.79808500      0.36971100      1.28276000
C       2.80447300      0.74212800     -1.59738300
C      -0.90638400     -2.17945000     -1.46174000
C      -1.32020800     -3.26972700     -0.63186300
C      -1.13791000     -3.30013800      0.76183500
C      -0.58209500     -2.15395200      1.41954600
O      -1.19654400     -2.14818700     -2.78080600
O      -0.45970100     -1.98058500      2.74799700
O      -2.20220300      1.30789900     -2.80469900
O      -2.00784800      1.44772000      2.65333400
O       2.85321900      0.75472500     -2.84000600
O       2.72356100     -0.15131100      2.45886900
S      -1.59007900     -4.68734400      1.81811800
S      -2.26725800     -4.52360600     -1.51222400
C      -2.05005800     -6.04058400     -0.60559800
C      -1.87394500     -6.06513500      0.74749400
C      -2.26043300     -7.27006300     -1.42432900
C      -2.01741900     -7.37573100      1.49404900
O      -2.32179500     -7.19539800     -2.64480800
O      -1.89588400     -7.40524600      2.70343500
C      -2.44267200     -8.57356200     -0.69949300
C      -2.36625300     -8.61154500      0.70637500
C      -2.72860600     -9.75588800     -1.41078000
C      -2.62565100     -9.82157200      1.37673300
C      -2.97158300    -10.96712400     -0.73962200
C      -2.94271100    -10.99094600      0.66618900
C      -2.92273700      2.40088400      0.59587700
C      -2.94710000      2.43524400     -0.80580000
S      -4.17092500      3.31193100     -1.76888500
S      -4.30734700      3.02445600      1.57615900
C      -4.88846200      4.46374000      0.68881100
C      -4.88414300      4.49083100     -0.68190900
C      -5.62522200      5.58508600     -1.40981200
C      -5.54909600      5.49806100      1.52619800
O      -5.64953600      5.61364400     -2.62618300
O      -5.48506300      5.45146100      2.75000000
C      -6.33819000      6.56946900      0.81755500
C      -6.36840200      6.60097600     -0.58996200
C      -7.12313800      7.58860900     -1.24426400
C      -7.07237900      7.53075300      1.54446700
C      -7.83521500      8.51470800      0.88810900
C      -7.85229200      8.53788400     -0.51758900
C       4.03343000      0.89120600     -0.77054000
C       4.03951900      0.70711200      0.60221300
S       5.48250300      0.77411800      1.68494700
S       5.44143700      1.21985000     -1.81788900
C       6.77872700      1.54285900     -0.70053500
C       6.79666500      1.39940800      0.65689400
C       8.02267800      1.74336900      1.45548500
C       8.00122400      1.98112100     -1.44921400
O       7.98096400      2.05707100     -2.66707500
O       8.02149500      1.61822600      2.66949100
C       9.24478900      2.30460600     -0.67600500
C       9.25142600      2.22353800      0.72631300
C      10.41976600      2.57453700      1.43178100
C      10.41022600      2.69333300     -1.35707000
C      11.57631000      3.02341900     -0.65362600
C      11.58021100      2.98509000      0.75165300
H       0.23307900      0.25785900     -2.52693100
H       0.28644400      0.35581400      2.21102000
H      -2.76723300     -9.69793000     -2.50037200
H      -2.57610500     -9.82235600      2.46736600
H      -3.18869200    -11.90790200     -1.29319400
H      -3.17860500    -11.93413200      1.19769700
H      -7.12660100      7.58859000     -2.33580500
H      -7.03451700      7.47972500      2.63457900
H      -8.43275300      9.27626900      1.44273800
H      -8.44338800      9.30234200     -1.04811600
H      10.39424500      2.51311600      2.52167700
H      10.37536300      2.73056300     -2.44748300
H      12.49407800      3.30943400     -1.19740300
H      12.50439200      3.28307600      1.29339000
Li     -1.55510700     -0.38846800      2.89628000
Li     -1.74817000     -0.38089600     -3.26556200
Li     -1.23883700     -3.77192700     -3.51672800
Li     -2.78059800      2.88277800      3.39718800
Li      1.39404700     -1.38877200      2.91844800
