    88
 Generated by Multiwfn (http://sobereva.com/multiwfn)
C       0.18343800     -0.26846600      1.40057100
C       1.55902900     -0.62491200      0.80959800
C       1.56708500     -0.55211700     -0.57112900
C       0.19665300     -0.28244900     -1.14780700
C      -0.23384300      1.10822700      0.79542300
C      -0.18042500      1.09861100     -0.59884800
C      -0.87383100     -1.20881600     -0.57132500
C      -0.89419700     -1.20021600      0.81979500
C      -2.03603200     -1.63381100      1.56414900
C      -1.97308500     -1.67737800     -1.32809300
C       2.74260700     -0.40964900     -1.37874700
C       2.78047000     -0.84345000      1.52220000
C      -0.83695700      2.20150000      1.44950400
C      -1.21602400      3.31090800      0.62734300
C      -1.04278900      3.33962000     -0.76804200
C      -0.53758700      2.17523700     -1.43468800
O      -1.12037200      2.17490400      2.77306300
O      -0.43196500      2.00448000     -2.76294500
O      -2.21782800     -1.27892200      2.79584300
O      -2.08094600     -1.39698600     -2.66076400
O       2.84479000     -0.98643000      2.82098300
O       2.64307500      0.06353800     -2.58930800
S      -1.45112200      4.74650700     -1.81623300
S      -2.12229700      4.59699100      1.50763800
C      -1.85274200      6.11333200      0.61096300
C      -1.68183600      6.13370400     -0.74498400
C      -2.02025700      7.34571100      1.43183900
C      -1.78167100      7.44779800     -1.48894200
O      -2.08358300      7.27380100      2.65376500
O      -1.66211100      7.47765800     -2.69959300
C      -2.15998200      8.65692700      0.70820800
C      -2.08575700      8.69407800     -0.69806500
C      -2.40356500      9.84967500      1.42006500
C      -2.30482100      9.91415100     -1.36637400
C      -2.60593600     11.07007900      0.75108700
C      -2.57925400     11.09409900     -0.65548400
C      -2.99781100     -2.34253300     -0.60297200
C      -3.01128400     -2.38168900      0.79999000
S      -4.25320500     -3.22667200      1.77010400
S      -4.40738000     -2.91937200     -1.57803800
C      -5.05662500     -4.32683900     -0.68686200
C      -5.04026200     -4.36040100      0.68508500
C      -5.83308500     -5.41615800      1.41527600
C      -5.78425100     -5.31730100     -1.52053100
O      -5.84412700     -5.45393100      2.63221000
O      -5.73556400     -5.26712500     -2.74533500
C      -6.62286100     -6.34978300     -0.80844000
C      -6.64345000     -6.38493300      0.59900800
C      -7.44952900     -7.33114200      1.25544400
C      -7.41314600     -7.26876100     -1.53232400
C      -8.22417400     -8.21271100     -0.87419100
C      -8.23638000     -8.23710600      0.53209800
C       3.95911100     -0.89494400      0.70127700
C       3.97038900     -0.71912800     -0.69375500
S       5.44218100     -0.84002100     -1.71519000
S       5.46386700     -0.95983400      1.67535200
C       6.71755800     -1.67665300      0.64874400
C       6.70194100     -1.57424400     -0.72259300
C       7.88895700     -2.05193400     -1.51796000
C       7.85564400     -2.22562500      1.41361700
O       7.81800800     -2.30296000      2.64062200
O       7.89868300     -1.98401300     -2.73587700
C       9.07503300     -2.64272400      0.64426800
C       9.08569400     -2.57779100     -0.76202300
C      10.23979800     -2.98789600     -1.46021800
C      10.22372600     -3.08512700      1.32665000
C      11.37635600     -3.47321600      0.62865200
C      11.38161100     -3.44012700     -0.77767300
H       0.23320700     -0.28420600      2.49597000
H       0.24693700     -0.35824800     -2.23981900
H      -2.44156600      9.79181400      2.50976000
H      -2.25772200      9.91296900     -2.45716400
H      -2.78909500     12.01954900      1.30477100
H      -2.78329100     12.04649200     -1.18613400
H      -7.44571200     -7.33347100      2.34705100
H      -7.37931200     -7.21623100     -2.62254100
H      -8.86356300     -8.94206600     -1.42760800
H      -8.86993900     -8.96882600      1.06326200
H      10.21696000     -2.93574500     -2.55067300
H      10.18643300     -3.11010500      2.41746600
H      12.28618800     -3.79953800      1.16992100
H      12.29227000     -3.77245300     -1.32088200
Li     -1.54082600      0.42154400     -2.89710900
Li     -1.72832000      0.41651700      3.21193200
Li     -1.13412500      3.80119700      3.49979300
Li     -2.89897200     -2.79542200     -3.41551400
Li      1.40177900      1.34423600     -3.00556300
Li      4.24751300     -1.66986500      3.58129100
