    89
 Generated by Multiwfn
C       0.19063400     -0.28166200      1.39064400
C       1.56537900     -0.66152500      0.80471500
C       1.58000000     -0.57988300     -0.57549900
C       0.21735300     -0.28005900     -1.15651500
C      -0.19755900      1.10813100      0.78992800
C      -0.13659200      1.10577100     -0.60361500
C      -0.88240100     -1.18485100     -0.59517500
C      -0.90931800     -1.19099800      0.80408500
C      -2.05359700     -1.61941400      1.53892200
C      -1.97558400     -1.62348100     -1.36873300
C       2.76300900     -0.45100100     -1.37752600
C       2.78390400     -0.90579700      1.51820100
C      -0.79202200      2.20706800      1.44499800
C      -1.14514800      3.33051600      0.62931700
C      -0.96463300      3.36370300     -0.76555200
C      -0.47682600      2.19262100     -1.43554900
O      -1.09161700      2.17009300      2.76590600
O      -0.37048400      2.02475900     -2.76340600
O      -2.24009900     -1.30844600      2.79573100
O      -2.06362500     -1.35623500     -2.70655800
O       2.84337200     -1.05878400      2.81731700
O       2.67550500      0.03390300     -2.58389200
S      -1.34661100      4.78395600     -1.80952400
S      -2.02883400      4.63235700      1.51521800
C      -1.75577900      6.15083800      0.61813500
C      -1.58034300      6.17160500     -0.73742100
C      -1.92896400      7.38471300      1.43774100
C      -1.67629800      7.48881000     -1.48091700
O      -2.00436500      7.31216000      2.65879000
O      -1.55253000      7.51889100     -2.69088000
C      -2.05825500      8.69982400      0.71484600
C      -1.97873200      8.73838300     -0.69101100
C      -2.29627400      9.89503500      1.42628800
C      -2.18915700      9.96193300     -1.35841400
C      -2.48794400     11.11917300      0.75882400
C      -2.45831400     11.14510200     -0.64837500
C      -3.03735500     -2.25047100     -0.65497300
C      -3.05267000     -2.28733500      0.74776200
S      -4.52624400     -2.88003300      1.58927000
S      -4.47666700     -2.76654700     -1.62317200
C      -5.15010100     -4.20079800     -0.79425600
C      -5.16558200     -4.24307700      0.59205800
C      -5.79100300     -5.31928900      1.32035500
C      -5.81509600     -5.21321800     -1.61798100
O      -5.66553000     -5.40352700      2.59902500
O      -5.75916400     -5.18409200     -2.85908700
C      -6.60874600     -6.24030500     -0.87050300
C      -6.59640300     -6.28368300      0.55278900
C      -7.39435000     -7.25545000      1.21306000
C      -7.40511900     -7.17835100     -1.57424500
C      -8.19569500     -8.12515300     -0.91078200
C      -8.19440500     -8.15396200      0.50337500
C       3.96551700     -0.97206600      0.70130200
C       3.98476800     -0.78503300     -0.69254700
S       5.45894700     -0.91305500     -1.71264800
S       5.46772600     -1.06698300      1.68070800
C       6.73743800     -1.75426300      0.64983300
C       6.72454200     -1.64021600     -0.72098000
C       7.92058800     -2.09968600     -1.51673200
C       7.88392500     -2.28979900      1.41299200
O       7.84661800     -2.37183600      2.63984000
O       7.93154300     -2.02424400     -2.73409900
C       9.11148100     -2.68913000      0.64345800
C       9.12357900     -2.61833600     -0.76256300
C      10.28359400     -3.01542700     -1.46089300
C      10.26573700     -3.12224900      1.32432200
C      11.42425100     -3.49675700      0.62667300
C      11.43090800     -3.46007800     -0.78026900
H       0.23792400     -0.29931900      2.48667000
H       0.27187600     -0.35180400     -2.24862200
H      -2.33800900      9.83651400      2.51587500
H      -2.13886000      9.96099000     -2.44914300
H      -2.66452900     12.07154300      1.31327900
H      -2.65587500     12.10273400     -1.17756800
H      -7.37326200     -7.26547500      2.30451200
H      -7.38566500     -7.12435500     -2.66496800
H      -8.83117200     -8.85752700     -1.46177200
H      -8.84039700     -8.88853100      1.02904000
H      10.26063200     -2.95935200     -2.55122900
H      10.22800600     -3.15158000      2.41508700
H      12.33886700     -3.81564400      1.16759900
H      12.34780000     -3.78431300     -1.32314600
Li     -1.49781800      0.44989600     -2.92850800
Li     -1.72768100      0.40081200      3.14736500
Li     -1.06913800      3.78989200      3.50228100
Li     -2.98907500     -2.69722500     -3.46538200
Li      1.45255100      1.33153600     -3.00192500
Li      4.24131700     -1.74344200      3.58247200
Li     -4.49864100     -4.35569900      3.43559500
