    90
 Generated by Multiwfn
C       0.15996500     -0.27822500      1.39348400
C       1.53489500     -0.67276900      0.81618100
C       1.55866800     -0.59551500     -0.56788200
C       0.19856100     -0.28204600     -1.15288700
C      -0.22040100      1.11125000      0.79053200
C      -0.15563900      1.10762500     -0.60493200
C      -0.90879300     -1.18462100     -0.59356400
C      -0.93929100     -1.18750600      0.80546600
C      -2.08657300     -1.61215300      1.54001000
C      -2.00533700     -1.61941700     -1.36637600
C       2.74898000     -0.47426500     -1.36190200
C       2.74026400     -0.92147500      1.54712300
C      -0.81150000      2.21326900      1.44082200
C      -1.15292700      3.34128300      0.62272200
C      -0.96712800      3.37452500     -0.77062200
C      -0.48941800      2.19466600     -1.43631600
O      -1.11548300      2.18224000      2.76137700
O      -0.38277700      2.02100200     -2.76712700
O      -2.27398100     -1.29173900      2.79275700
O      -2.09456900     -1.34685600     -2.70276500
O       2.78878500     -1.08868900      2.84237300
O       2.68531800      0.00073700     -2.58154900
S      -1.33497400      4.80147500     -1.81374800
S      -2.02957500      4.65071900      1.50533300
C      -1.73901000      6.17492500      0.61758500
C      -1.56116500      6.19793100     -0.73897300
C      -1.90719600      7.40217900      1.44326200
C      -1.64368400      7.51159700     -1.47867800
O      -1.99373700      7.32136100      2.66692200
O      -1.51886300      7.54308500     -2.69261100
C      -2.01824600      8.71797300      0.72386600
C      -1.93320200      8.75882300     -0.68400300
C      -2.24655100      9.91772300      1.43611100
C      -2.13097300      9.98928800     -1.34679400
C      -2.42351700     11.14581500      0.77288300
C      -2.39004500     11.17335100     -0.63618500
C      -3.06825200     -2.24936700     -0.65248700
C      -3.08443600     -2.28714500      0.75039700
S      -4.55565100     -2.88222100      1.59537100
S      -4.51055800     -2.75776300     -1.61860600
C      -5.21603800     -4.17569600     -0.79644200
C      -5.23316600     -4.22103400      0.59335100
C      -5.89169300     -5.27741300      1.32045000
C      -5.90673800     -5.16568300     -1.62699500
O      -5.77673100     -5.36196400      2.60225100
O      -5.85435500     -5.13355300     -2.86839000
C      -6.72246700     -6.17615600     -0.87698000
C      -6.71360700     -6.22086300      0.54908900
C      -7.53590000     -7.17694300      1.20572900
C      -7.53985100     -7.09697800     -1.57976000
C      -8.35248500     -8.02940300     -0.91937600
C      -8.35426900     -8.05934400      0.49550600
C       3.93920000     -0.96298000      0.74553400
C       3.95411800     -0.76922400     -0.64866100
S       5.52944700     -0.63047900     -1.51561900
S       5.43230800     -1.04814700      1.73057500
C       6.72137300     -1.75177100      0.75566600
C       6.74541600     -1.62805800     -0.62711500
C       7.82544200     -2.17133100     -1.42465800
C       7.82664500     -2.35305600      1.50979700
O       7.78624800     -2.46626100      2.74401100
O       7.75633200     -2.15772100     -2.70701000
C       9.01253700     -2.77342000      0.70446700
C       9.00790000     -2.70694800     -0.71792100
C      10.16805700     -3.13803600     -1.42146100
C      10.17147500     -3.23427800      1.36430000
C      11.31323900     -3.62901500      0.66031100
C      11.31382000     -3.59393200     -0.75247700
H       0.20148300     -0.29538300      2.48952100
H       0.24916200     -0.35867800     -2.24535400
H      -2.29208500      9.85594100      2.52549900
H      -2.07882700      9.98954200     -2.43752500
H      -2.59149500     12.10233000      1.32711700
H      -2.57797400     12.13481200     -1.16367900
H      -7.51742400     -7.18718300      2.29735500
H      -7.51763900     -7.04162000     -2.67056500
H      -9.00315100     -8.74984800     -1.47116200
H      -9.01725800     -8.78212800      1.01959800
H      10.14006800     -3.08928200     -2.51201500
H      10.14292000     -3.26361100      2.45555100
H      12.22090600     -3.96319500      1.19919700
H      12.23470500     -3.93058100     -1.29149900
Li     -1.54072700      0.47353400     -2.89550900
Li     -1.77384300      0.42476700      3.13851300
Li     -1.11150200      3.80758600      3.49532900
Li     -3.06333800     -2.65480900     -3.47045700
Li      1.42449200      1.30977100     -2.94446100
Li      4.19499700     -1.74457200      3.63046700
Li     -4.59941400     -4.35225300      3.45053400
Li      6.24094300     -1.68685900     -3.50575900
