    91
 Generated by Multiwfn
C       0.18983200     -0.29819600      1.39581000
C       1.57766000     -0.65309500      0.82067000
C       1.59928600     -0.57227400     -0.56961200
C       0.22509800     -0.29448700     -1.14859800
C      -0.22792200      1.08629400      0.79883500
C      -0.15982700      1.09054100     -0.60026000
C      -0.86242300     -1.22263200     -0.58943000
C      -0.89188200     -1.22914800      0.80898000
C      -2.02794900     -1.68755300      1.54259200
C      -1.94753800     -1.68842500     -1.36232900
C       2.77691700     -0.43780400     -1.36560600
C       2.78236300     -0.86888000      1.55216400
C      -0.84585700      2.16441700      1.46297100
C      -1.24216600      3.28240200      0.65186000
C      -1.05791500      3.31379300     -0.74298900
C      -0.52221200      2.17374200     -1.42626200
O      -1.13972200      2.12130200      2.78315600
O      -0.41548700      2.02140300     -2.76418000
O      -2.22228400     -1.37964300      2.79743100
O      -2.04203000     -1.41515600     -2.70089000
O       2.84092700     -1.02153500      2.85496300
O       2.70510500      0.01649500     -2.60365300
S      -1.73006700      4.68673200     -1.70565500
S      -2.20457400      4.54313200      1.51821800
C      -1.92673600      6.10982200      0.71024100
C      -1.77033300      6.17268400     -0.66531500
C      -2.06853600      7.31382900      1.53840100
C      -1.76034100      7.42842800     -1.37670200
O      -2.14760700      7.23874700      2.77621200
O      -1.52209500      7.45457600     -2.64243300
C      -2.17423800      8.61380600      0.80062500
C      -2.06204400      8.65834800     -0.61794300
C      -2.41756300      9.82140300      1.50431800
C      -2.26515900      9.90355300     -1.27649500
C      -2.59759000     11.04546200      0.84479400
C      -2.55320800     11.07751900     -0.56985100
C      -2.99495300     -2.34408400     -0.65136100
C      -3.00940000     -2.38442500      0.75193600
S      -4.47041700     -3.01033300      1.59731400
S      -4.42946300     -2.88374600     -1.62031100
C      -5.10972700     -4.31918500     -0.79250700
C      -5.12332400     -4.36492000      0.59375200
C      -5.76727800     -5.43455100      1.31984900
C      -5.79418000     -5.32012700     -1.61690400
O      -5.64531000     -5.51951900      2.59868100
O      -5.74603300     -5.28516300     -2.85816000
C      -6.59862500     -6.34311000     -0.87107100
C      -6.58611100     -6.39047700      0.55209900
C      -7.39501500     -7.35800200      1.20945800
C      -7.40561100     -7.27297200     -1.57582600
C      -8.20507600     -8.21635000     -0.91586200
C      -8.20464300     -8.25006400      0.49919800
C       3.97748100     -0.88392700      0.74763400
C       3.98732800     -0.69652200     -0.64739300
S       5.57068600     -0.52237600     -1.50381100
S       5.49196200     -0.88814900      1.72458600
C       6.78158700     -1.63674900      0.76188900
C       6.80220800     -1.52277100     -0.62088000
C       7.87806500     -2.06764500     -1.41809700
C       7.88470400     -2.23544200      1.51325200
O       7.84659900     -2.34223300      2.75256400
O       7.80322600     -2.06398200     -2.70595400
C       9.07220400     -2.65276100      0.71129000
C       9.06610100     -2.58889800     -0.71153400
C      10.23314600     -3.01144800     -1.41379300
C      10.23817300     -3.10698900      1.37136900
C      11.38306700     -3.49227400      0.66954500
C      11.38256300     -3.45474800     -0.74555700
H       0.23774600     -0.31523600      2.49208900
H       0.27719000     -0.37509800     -2.24230500
H      -2.47172200      9.75651200      2.59330200
H      -2.20188700      9.91096600     -2.36649800
H      -2.77492100     12.00026000      1.39933300
H      -2.76348200     12.04180600     -1.09133900
H      -7.37336600     -7.37054600      2.30098500
H      -7.38648400     -7.21593900     -2.66648100
H      -8.84758500     -8.94359600     -1.46958400
H      -8.85961400     -8.98494900      1.02105300
H      10.20384200     -2.96376700     -2.50445300
H      10.20866300     -3.13500700      2.46272600
H      12.29729000     -3.82110800      1.20582400
H      12.30900500     -3.77942600     -1.28474700
Li     -1.50668100      0.40932200     -2.85242500
Li     -1.70985500      0.33168300      3.16760500
Li     -1.25612500      3.75358100      3.51470300
Li     -2.95201600     -2.76282600     -3.45860900
Li      1.41526200      1.27666000     -2.90662300
Li      4.28439600     -1.60806800      3.61964200
Li     -4.47341200     -4.48449800      3.44506800
Li      6.27612500     -1.60056200     -3.47422900
Li     -0.94483100      6.03736700     -3.51026400
