   100
 Generated by Multiwfn (http://sobereva.com/multiwfn)
C      -0.00405200     -0.00360500     -1.30151300
C       0.37721900      1.33793400     -0.67102900
C       0.37722000      1.33793400      0.67102900
C      -0.00405200     -0.00360500      1.30151300
C       0.96717900     -1.00441600     -0.67103100
C       0.96717800     -1.00441700      0.67103100
C      -1.35636600     -0.34426300      0.67102200
C      -1.35636600     -0.34426400     -0.67102200
C      -2.56870400     -0.65008100     -1.44929500
C      -2.56870500     -0.65007700      1.44929400
C       0.71871200      2.54071900      1.44928200
C       0.71871200      2.54071800     -1.44928300
C       1.83801600     -1.90160000     -1.44928300
C       2.73193100     -2.82245100     -0.67666000
C       2.73193000     -2.82245100      0.67665900
C       1.83801500     -1.90160100      1.44928300
O       1.83967300     -1.90350600     -2.67244500
O       1.83967800     -1.90350200      2.67244600
O      -2.57094300     -0.65144500     -2.67246000
O      -2.57094200     -0.65145000      2.67246100
O       0.71854700      2.54339900     -2.67244400
O       0.71854400      2.54340200      2.67244300
S       3.69030400     -3.81021500      1.79845700
S       3.69030500     -3.81021400     -1.79845600
C       4.65178600     -4.79764900     -0.67590400
C       4.65178500     -4.79765000      0.67590400
C       5.53977500     -5.71006900     -1.45557000
C       5.53977400     -5.71007000      1.45557100
O       5.50247800     -5.67260200     -2.68129000
O       5.50246900     -5.67261100      2.68129000
C       6.43117400     -6.62485500     -0.71198700
C       6.43117300     -6.62485700      0.71198800
C       7.26268900     -7.47827400     -1.40402300
C       7.26268500     -7.47827700      1.40402400
C       8.12779800     -8.36619100     -0.71746600
C       8.12779600     -8.36619300      0.71746700
C       8.99279900     -9.25404100     -1.40546100
C       8.99279500     -9.25404400      1.40546200
C       9.82166100    -10.10482600     -0.70761900
C       9.82165900    -10.10482800      0.70761900
C      -3.81324100     -0.96341500      0.67666000
C      -3.81324100     -0.96341600     -0.67666000
S      -5.14770200     -1.30016300     -1.79843700
S      -5.14770300     -1.30015900      1.79843800
C     -12.52504100     -3.12404200     -1.40546700
C     -12.52504300     -3.12403600      1.40546600
C     -13.67817000     -3.40889700      0.70762000
C     -13.67816900     -3.40890100     -0.70762100
C      -6.48565000     -1.63089100      0.67590200
C      -6.48564900     -1.63089300     -0.67590200
C      -7.72143900     -1.93725400     -1.45558100
C      -7.72144000     -1.93725200      1.45558100
O      -7.66986600     -1.92561000     -2.68130200
O      -7.66987000     -1.92559500      2.68130200
C      -8.96144200     -2.24355000      0.71198800
C      -8.96144100     -2.24355300     -0.71198800
C     -10.11815200     -2.52948800     -1.40402400
C     -10.11815400     -2.52948200      1.40402400
C     -11.32166500     -2.82676200      0.71746800
C     -11.32166400     -2.82676500     -0.71746800
C       1.06981100      3.77511900     -0.67665800
C       1.06981100      3.77511900      0.67665700
S       1.44614500      5.09897100      1.79843900
S       1.44614400      5.09897100     -1.79844100
C       1.82846400      6.42311200     -0.67590300
C       1.82846400      6.42311200      0.67590100
C       2.18112600      7.64649100      1.45557200
C       2.18112600      7.64649200     -1.45557300
O       2.16573100      7.59589600     -2.68128900
O       2.16573500      7.59589300      2.68128800
C       2.53574200      8.87355300     -0.71198700
C       2.53574200      8.87355300      0.71198600
C       2.86646200     10.01827200      1.40401900
C       2.86646200     10.01827300     -1.40401900
C       3.21070100     11.20920600     -0.71746100
C       3.21070100     11.20920500      0.71746100
C       3.55492500     12.40000900      1.40546100
C       3.88480000     13.54107900      0.70761800
C       3.88480000     13.54108000     -0.70761700
C       3.55492400     12.40001000     -1.40545900
H      -0.00414900     -0.00366800     -2.38878800
H      -0.00414900     -0.00366800      2.38878900
H       7.24561600     -7.46083400     -2.48934700
H       7.24560900     -7.46084000      2.48934800
H       8.98978900     -9.25096500     -2.49182300
H       8.98978200     -9.25097100      2.49182300
H      10.48084300    -10.78142100     -1.24312500
H      10.48084000    -10.78142400      1.24312500
H     -12.52085200     -3.12301400     -2.49182700
H     -12.52085600     -3.12300300      2.49182600
H     -14.59522700     -3.63542700      1.24312100
H     -14.59522500     -3.63543200     -1.24312300
H     -10.09440200     -2.52375000     -2.48934500
H     -10.09440600     -2.52374000      2.48934500
H       2.85961200      9.99484200      2.48934200
H       2.85961000      9.99484400     -2.48934200
H       3.55371300     12.39588200      2.49181900
H       4.14716200     14.44853500      1.24311700
H       4.14716100     14.44853600     -1.24311500
H       3.55371200     12.39588400     -2.49181800
