   200
 Generated by Multiwfn (http://sobereva.com/multiwfn)
C      -8.45004800     -0.25870900     -1.29988700
C      -8.73770700     -1.62307100     -0.67252200
C      -8.73757000     -1.62317800      0.67239000
C      -8.44982300     -0.25890300      1.29990800
C      -9.47848700      0.67906600     -0.67205200
C      -9.47837200      0.67896500      0.67238900
C      -7.11640600      0.15438400      0.67192100
C      -7.11651200      0.15446200     -0.67206300
C      -5.91050500      0.47537900     -1.45755100
C      -5.91031800      0.47536100      1.45725600
C      -8.91207600     -2.86098000      1.45456700
C      -8.91253800     -2.86071300     -1.45488200
C     -10.40329400      1.52105700     -1.45577900
C     -11.34781400      2.38977800     -0.67807000
C     -11.34769600      2.38967700      0.67898500
C     -10.40304100      1.52083900      1.45640300
O     -10.40917500      1.51764700     -2.67286100
O     -10.40871700      1.51724300      2.67348600
O      -5.91028300      0.47364100     -2.67522100
O      -5.90993400      0.47360400      2.67492500
O      -8.89378000     -2.86668900     -2.67246700
O      -8.89284100     -2.86720400      2.67214500
S     -12.36225700      3.31968400      1.79715500
S     -12.36257000      3.31994800     -1.79592600
C     -13.35453600      4.27612900     -0.67679300
C     -13.35441800      4.27603000      0.67833500
C     -14.27366700      5.15771300     -1.46125800
C     -14.27341100      5.15750000      1.46308900
O     -14.24027400      5.11827900     -2.68061900
O     -14.23980300      5.11789000      2.68243900
C     -15.19238400      6.04636200     -0.71182700
C     -15.19225900      6.04625900      0.71394900
C     -16.05122800      6.87625400     -1.40411700
C     -16.05098000      6.87605100      1.40650900
C     -16.94375700      7.73981100     -0.71716800
C     -16.94363000      7.73970800      0.71984200
C     -17.83644000      8.60351400     -1.40583700
C     -17.83619200      8.60331200      1.40879300
C     -18.69149900      9.43092100     -0.70688400
C     -18.69137400      9.43081900      0.71010900
C      -4.67418800      0.81050700      0.67865900
C      -4.67426900      0.81049700     -0.67910800
S      -3.34953800      1.18619100     -1.79131400
S      -3.34935100      1.18628900      1.79071500
C       4.15761200      2.38042800     -1.40703100
C       4.15776800      2.38075800      1.40552700
C       5.31307900      2.66849300      0.70672900
C       5.31299900      2.66832300     -0.70843400
C      -1.97996300      1.34454100      0.67701000
C      -1.98003300      1.34447700     -0.67775200
C      -0.71879500      1.50508000     -1.46214600
C      -0.71865700      1.50530700      1.46127500
O      -0.76578100      1.49507500     -2.68071800
O      -0.76554000      1.49543100      2.67985100
C       0.54723600      1.69169500      0.71181800
C       0.54716500      1.69156300     -0.71282500
C       1.72548500      1.88417200     -1.40738400
C       1.72562200      1.88446000      1.40623100
C       2.94212200      2.12562700      0.71629200
C       2.94204700      2.12546600     -0.71760700
C      -9.07274600     -4.13475300     -0.67881200
C      -9.07252800     -4.13487200      0.67830700
S      -9.21753700     -5.50222700      1.79665300
S      -9.21813500     -5.50189100     -1.79736300
C      -9.33694000     -6.87489300     -0.67775800
C      -9.33671400     -6.87501400      0.67683400
C      -9.44626400     -8.14390000      1.46171000
C      -9.44677800     -8.14362300     -1.46283500
O      -9.44438100     -8.09040700     -2.68209100
O      -9.44348800     -8.09091100      2.68097400
C      -9.55493600     -9.41692900     -0.71365500
C      -9.55469000     -9.41706300      0.71232500
C      -9.65586900    -10.60712800      1.40460000
C      -9.65635200    -10.60686400     -1.40611800
C      -9.76123900    -11.84443100     -0.71938500
C      -9.76099200    -11.84456700      0.71767000
C      -9.86586300    -13.08214200      1.40643900
C      -9.96660400    -14.26770700      0.70743100
C      -9.96684800    -14.26757400     -0.70953300
C      -9.86634800    -13.08187700     -1.40835200
H      -8.44895100     -0.25861400     -2.39316200
H      -8.44853300     -0.25895800      2.39318200
H     -16.03191600      6.85695900     -2.49566700
H     -16.03147700      6.85659900      2.49805400
H     -17.83397900      8.60117000     -2.49832400
H     -17.83353800      8.60081100      2.50127900
H     -19.37431100     10.09165400     -1.24568400
H     -19.37409100     10.09147500      1.24912500
H       4.16254300      2.35282400     -2.49833000
H       4.16282000      2.35340400      2.49683100
H       6.22949800      2.89192400      1.25451500
H       6.22932700      2.89163700     -1.25641400
H       1.70224200      1.86389400     -2.49810500
H       1.70247600      1.86439500      2.49695900
H      -9.65351800    -10.58012100      2.49616000
H      -9.65437800    -10.57965100     -2.49767400
H      -9.86530800    -13.07881500      2.49891100
H     -10.04678200    -15.21446000      1.24622700
H     -10.04721200    -15.21422500     -1.24848000
H      -9.86616900    -13.07834400     -2.50082400
C       8.45079100      0.25814700     -1.29987900
C       7.11725500     -0.15499800     -0.67204100
C       7.11716100     -0.15487800      0.67194300
C       8.45060100      0.25836800      1.29991800
C       8.73844500      1.62251700     -0.67252800
C       8.73831900      1.62263500      0.67238600
C       9.47911500     -0.67953000      0.67239700
C       9.47921800     -0.67964200     -0.67204200
C      10.40387300     -1.52179900     -1.45577200
C      10.40364200     -1.52156100      1.45640900
C       5.91103400     -0.47562800      1.45730400
C       5.91123600     -0.47593100     -1.45750400
C       8.91342700      2.86013200     -1.45488500
C       9.07315600      4.13423200     -0.67880900
C       9.07298600      4.13435300      0.67830900
C       8.91311600      2.86038400      1.45457200
O       8.89519000      2.86605100     -2.67247900
O       8.89462900      2.86650900      2.67216100
O      10.40960200     -1.51855400     -2.67285500
O      10.40922200     -1.51807500      2.67349300
O       5.91098800     -0.47421300     -2.67517200
O       5.91062800     -0.47366400      2.67497300
S       9.21766000      5.50174200      1.79665100
S       9.21812600      5.50141800     -1.79735800
C       9.33538300      6.87455400     -0.67775900
C       9.33520200      6.87467700      0.67683300
C       9.44383400      8.14340700     -1.46283500
C       9.44344600      8.14367300      1.46170800
O       9.44158900      8.09018200     -2.68209100
O       9.44088300      8.09066900      2.68097300
C       9.55056900      9.41683300     -0.71365500
C       9.55037900      9.41696300      0.71232500
C       9.65062300     10.60688200     -1.40612000
C       9.65024700     10.60713900      1.40459900
C       9.75412900     11.84456600     -0.71938700
C       9.75393600     11.84469800      0.71766800
C       9.85781000     13.08213200     -1.40835400
C       9.85743200     13.08239000      1.40643600
C       9.95699300     14.26794000     -0.70953600
C       9.95680200     14.26807000      0.70742700
C      11.34824800     -2.39045200      0.67899100
C      11.34835100     -2.39056700     -0.67806400
S      12.36296700     -3.32087800     -1.79593000
S      12.36269500     -3.32057600      1.79716800
C      17.84106500     -8.60005300     -1.40583900
C      17.84085500     -8.59981400      1.40879200
C      18.69669800     -9.42663800      0.71010700
C      18.69680300     -9.42675800     -0.70688600
C      13.35562000     -4.27611800      0.67833900
C      13.35572200     -4.27623200     -0.67679000
C      14.27546800     -5.15717400     -1.46125400
C      14.27525000     -5.15692500      1.46309000
O      14.24189500     -5.11791700     -2.68061700
O      14.24149300     -5.11746400      2.68244100
C      15.19483500     -6.04492000      0.71395000
C      15.19494100     -6.04504100     -0.71182600
C      16.05444300     -6.87425100     -1.40411600
C      16.05423300     -6.87401200      1.40650900
C      16.94758400     -7.73694400      0.71984200
C      16.94769100     -7.73706600     -0.71716900
C       4.67499900     -0.81099800     -0.67902900
C       4.67491500     -0.81086600      0.67873800
S       3.35007900     -1.18649400      1.79083800
S       3.35027400     -1.18682900     -1.79119500
C       1.98076600     -1.34502000     -0.67761300
C       1.98070600     -1.34491100      0.67714800
C       0.71940600     -1.50557600      1.46143500
C       0.71953000     -1.50577600     -1.46198600
O       0.76650900     -1.49590900     -2.68055800
O       0.76629700     -1.49558800      2.68001000
C      -0.54642500     -1.69217600     -0.71263200
C      -0.54647900     -1.69210100      0.71200900
C      -1.72485600     -1.88474700      1.40646600
C      -1.72475800     -1.88486700     -1.40714700
C      -2.94132600     -2.12598800     -0.71731800
C      -2.94137500     -2.12593900      0.71658200
C      -4.15703700     -2.38078100      1.40589100
C      -5.31241400     -2.66838500      0.70716400
C      -5.31236400     -2.66843200     -0.70800700
C      -4.15694400     -2.38087600     -1.40668200
H       8.44969900      0.25803100     -2.39315300
H       8.44932200      0.25843300      2.39319200
H       9.64864900     10.57966900     -2.49767600
H       9.64798100     10.58012500      2.49615900
H       9.85759400     13.07860200     -2.50082600
H       9.85692200     13.07906000      2.49890900
H      10.03626400     15.21468300     -1.24848400
H      10.03592900     15.21491100      1.24622300
H      17.83858600     -8.59772600     -2.49832600
H      17.83821400     -8.59730100      2.50127800
H      19.37995600    -10.08673400      1.24912200
H      19.38014200    -10.08694700     -1.24568700
H      16.03508700     -6.85500000     -2.49566700
H      16.03471500     -6.85457500      2.49805400
H      -1.70169800     -1.86451000      2.49719000
H      -1.70153300     -1.86473200     -2.49787100
H      -4.16206200     -2.35323400      2.49719100
H      -6.22891500     -2.89140500      1.25497900
H      -6.22880200     -2.89154400     -1.25589000
H      -4.16190200     -2.35341300     -2.49798400
