    82
 Generated by Multiwfn (http://sobereva.com/multiwfn)
C       0.00230900     -0.00950300     -1.29784100
C      -1.14650800     -0.80369900     -0.67201000
C      -1.14651100     -0.80369300      0.67201400
C       0.00231200     -0.00950200      1.29784100
C      -0.11149900      1.38247500     -0.67198500
C      -0.11149300      1.38247500      0.67198400
C       1.26453200     -0.60667000      0.67200500
C       1.26453300     -0.60666500     -0.67200700
C       2.39095100     -1.13825700     -1.47075500
C       2.39094400     -1.13827600      1.47075200
C      -2.17214200     -1.51047200      1.47074500
C      -2.17212700     -1.51049400     -1.47074000
C      -0.21266200      2.62385700     -1.47079000
C      -0.31532100      3.87458000     -0.67729400
C      -0.31531400      3.87458100      0.67729400
C      -0.21264100      2.62385800      1.47078900
O      -0.21311000      2.62690700     -2.69181400
O      -0.21309500      2.62690700      2.69181300
O       2.39390500     -1.13917800     -2.69178300
O       2.39390900     -1.13917700      2.69177900
O      -2.17497500     -1.51209500     -2.69175300
O      -2.17495900     -1.51211400      2.69175900
O      -0.40785100      5.01065400      1.42339900
O      -0.40786500      5.01065300     -1.42339900
C      -0.50946400      6.19451500     -0.71063800
C      -0.50945700      6.19451500      0.71063800
C      -0.61029100      7.36721800     -1.40566000
C      -0.61027700      7.36721800      1.40566100
C      -0.71688600      8.60694900     -0.71583400
C      -0.71687800      8.60695000      0.71583500
C      -0.82317700      9.84068800     -1.40254600
C      -0.82316200      9.84068900      1.40254700
C      -0.92538000     11.02645300     -0.70643900
C      -0.92537200     11.02645400      0.70644100
C       3.52667200     -1.67213200      0.67728800
C       3.52667300     -1.67212700     -0.67729200
O       4.55834100     -2.15657600     -1.42347200
O       4.55833700     -2.15658200      1.42346700
C       5.63629400     -2.65621800      0.71064100
C       5.63629600     -2.65621500     -0.71064600
C       6.70414400     -3.15130700     -1.40564900
C       6.70414000     -3.15131200      1.40564400
C       7.83290700     -3.67500000      0.71583500
C       7.83291000     -3.67499700     -0.71583800
C       8.95622000     -4.19612500     -1.40255900
C       8.95621400     -4.19613100      1.40255800
C      10.03586200     -4.69697600      0.70643700
C      10.03586500     -4.69697300     -0.70643500
C      -3.20485700     -2.22334000     -0.67727600
C      -3.20486100     -2.22333500      0.67728400
O      -4.14289500     -2.87072900      1.42343900
O      -4.14289000     -2.87073200     -1.42343100
C      -5.12386500     -3.54105900     -0.71063000
C      -5.12386700     -3.54106000      0.71063700
C      -6.09560000     -4.20527200      1.40563300
C      -6.09559600     -4.20527000     -1.40562900
C      -7.12271800     -4.90763700     -0.71582100
C      -7.12272000     -4.90763800      0.71582100
C      -8.14487000     -5.60662900      1.40253800
C      -8.14486500     -5.60662700     -1.40254200
C      -9.12729200     -6.27845600     -0.70644200
C      -9.12729400     -6.27845700      0.70643400
H       0.00245100     -0.00933000     -2.38530700
H       0.00245500     -0.00932800      2.38530600
H      -0.60789200      7.33752200     -2.49052700
H      -0.60786700      7.33752300      2.49052700
H      -0.82286200      9.83670800     -2.48922400
H      -0.82283500      9.83670900      2.48922600
H      -1.00634400     11.96628500     -1.24446100
H      -1.00633100     11.96628600      1.24446300
H       6.67712500     -3.13868800     -2.49051400
H       6.67711700     -3.13869800      2.49050900
H       8.95261400     -4.19443400     -2.48923700
H       8.95260500     -4.19444500      2.48923600
H      10.89158000     -5.09395000      1.24445500
H      10.89158500     -5.09394500     -1.24445200
H      -6.07102900     -4.18838300      2.49050000
H      -6.07102200     -4.18838100     -2.49049600
H      -8.14157500     -5.60439800      2.48921600
H      -8.14156700     -5.60439500     -2.48922000
H      -9.90594700     -6.81093000     -1.24446600
H      -9.90595100     -6.81093100      1.24445500
