   164
 Generated by Multiwfn (http://sobereva.com/multiwfn)
C      -6.71443500      0.05368400      1.29677400
C      -7.11707200      1.39185900      0.67549600
C      -7.11917400      1.39522100     -0.66868300
C      -6.71898800      0.05996600     -1.29796100
C      -7.67059500     -0.96241800      0.67074200
C      -7.67298900     -0.95913200     -0.67349700
C      -5.35663300     -0.25809900     -0.67538600
C      -5.35422200     -0.26099900      0.66778800
C      -4.13756600     -0.52859200      1.46460600
C      -4.14345300     -0.52470800     -1.47794900
C      -7.42002300      2.60513000     -1.46266800
C      -7.41679200      2.59732800      1.47679100
C      -8.52342200     -1.87080900      1.46862000
C      -9.38310700     -2.78432200      0.67454900
C      -9.38557100     -2.78096800     -0.68010600
C      -8.52877400     -1.86352400     -1.47276400
O      -8.52566900     -1.87379400      2.68971400
O      -8.53567900     -1.86025200     -2.69383700
O      -4.12521300     -0.50663600      2.68555700
O      -4.13661000     -0.50142600     -2.69892100
O      -7.38841400      2.60626600      2.69796500
O      -7.39310500      2.62105700     -2.68387300
O     -10.16755500     -3.60949000     -1.42690600
O     -10.16233400     -3.61657400      1.42007800
C     -10.97862400     -4.47922300      0.70649500
C     -10.98124400     -4.47567400     -0.71463500
C     -11.78488000     -5.33734200      1.40088500
C     -11.79007300     -5.33031500     -1.41032300
C     -12.63983400     -6.24087400      0.71043200
C     -12.64248300     -6.23729000     -0.72124200
C     -13.48823400     -7.14342700      1.39652300
C     -13.49343000     -7.13640200     -1.40869600
C     -14.30620100     -8.00738800      0.69971200
C     -14.30881900     -8.00384800     -0.71319600
C      -2.92876800     -0.83734700     -0.68598400
C      -2.92620800     -0.83961000      0.66691600
O      -1.81752200     -1.11854200      1.40944600
O      -1.82278500     -1.11361100     -1.43352900
C      -0.69175400     -1.47872400     -0.72469700
C      -0.68922100     -1.48152900      0.69526100
C       0.43832700     -1.82453200      1.38875200
C       0.43362100     -1.81816300     -1.42335300
C       1.62121200     -2.18668100     -0.73561200
C       1.62348200     -2.19051800      0.69548700
C       2.81208600     -2.54755100      1.37949300
C       2.80796300     -2.53865900     -1.42523300
C       3.94097200     -2.91018000     -0.73191900
C       3.94272900     -2.91520500      0.68037500
C      -7.72560300      3.81693900      0.68802200
C      -7.72671600      3.82057400     -0.66675800
O      -7.99078700      4.93049600     -1.40989800
O      -7.98862600      4.92280500      1.43755400
C      -8.25150900      6.08399800      0.72763100
C      -8.25257200      6.08783600     -0.69331600
C      -8.51243000      7.23760100     -1.38523300
C      -8.51031300      7.23000700      1.42614500
C      -8.78540600      8.44547500      0.73978800
C      -8.78648800      8.44933900     -0.69190600
C      -9.06015800      9.65891200     -1.37529700
C      -9.05803000      9.65134000      1.43011400
C      -9.32100500     10.81397500      0.73719000
C      -9.32207800     10.81778700     -0.67570800
H      -6.71093900      0.05177900      2.38420300
H      -6.71932300      0.06329300     -2.38539000
H     -11.76232800     -5.31833800      2.48575100
H     -11.77152300     -5.30589400     -2.49515600
H     -13.48343000     -7.14325700      2.48318400
H     -13.49265100     -7.13079100     -2.49535300
H     -14.95250400     -8.69497700      1.23711700
H     -14.95711600     -8.68874200     -1.25164000
H       0.41908100     -1.80004700      2.47308000
H       0.41091900     -1.78893000     -2.50749200
H       2.81893900     -2.52895400      2.46531200
H       2.81184600     -2.51270100     -2.51089400
H       4.83002900     -3.20179400     -1.28075000
H       4.83324800     -3.21176200      1.22409300
H      -8.50645700      7.21143800     -2.47016300
H      -8.50270100      7.19798100      2.51090700
H      -9.06007500      9.65798600     -2.46194300
H      -9.05630100      9.64454600      2.51673800
H      -9.52856300     11.73266900      1.27769900
H      -9.53045400     11.73938500     -1.21093600
C       6.71479900     -0.05378200      1.29775700
C       7.67027200      0.96275600      0.67141000
C       7.67222500      0.95946500     -0.67282900
C       6.71842600     -0.06000300     -1.29698100
C       5.35421200      0.26021900      0.66924800
C       5.35615700      0.25747200     -0.67393100
C       7.11935800     -1.39513400     -0.66786000
C       7.11782700     -1.39177100      0.67631900
C       7.41845000     -2.59709200      1.47752400
C       7.42028200     -2.60495700     -1.46193700
C       8.52736800      1.86421700     -1.47238200
C       8.52297100      1.87151700      1.46900400
C       4.13754200      0.52633100      1.46651400
C       2.92569800      0.83673200      0.66934200
C       2.92780600      0.83477100     -0.68356100
C       4.14253900      0.52350200     -1.47602900
O       4.12549400      0.50346100      2.68745800
O       4.13538500      0.50084400     -2.69700900
O       7.39061300     -2.60599700      2.69870200
O       7.39284100     -2.62092100     -2.68313900
O       8.52560500      1.87451900      2.69009600
O       8.53384800      1.86096300     -2.69345700
O       1.82135600      1.11055200     -1.43063700
O       1.81695200      1.11420100      1.41234500
C       0.68849500      1.47776900      0.69866100
C       0.69058700      1.47549100     -0.72127400
C      -0.43878700      1.82071200      1.39262900
C      -0.43484500      1.81582000     -1.41945700
C      -1.62395400      2.18757100      0.69986300
C      -1.62202100      2.18475800     -0.73126600
C      -2.81216200      2.54489600      1.38438700
C      -2.80856900      2.53856600     -1.42035200
C      -3.94259800      2.91424900      0.68582600
C      -3.94103300      2.91068300     -0.72647500
C       7.72786100     -3.82024800     -0.66615200
C       7.72746200     -3.81657900      0.68863200
O       7.99141100     -4.92229500      1.43805000
O       7.99205600     -4.93006600     -1.40939900
C       8.25475000     -6.08726800     -0.69292600
C       8.25444900     -6.08338900      0.72802100
C       8.51415600     -7.22925700      1.42643000
C       8.51476000     -7.23693400     -1.38494900
C       8.78974700     -8.44852600     -0.69173300
C       8.78943800     -8.44461800      0.73996100
C       9.06298900     -9.65033700      1.43017600
C       9.06360200     -9.65799400     -1.37523500
C       9.32643200    -10.81672700     -0.67575300
C       9.32612100    -10.81287200      0.73714500
C       9.38202700      2.78537400      0.67464600
C       9.38404300      2.78202000     -0.68001000
O      10.16543900      3.61086000     -1.42707000
O      10.16116100      3.61794600      1.41991400
C      10.97689100      4.48090100      0.70605900
C      10.97903900      4.47735100     -0.71507200
C      11.78731400      5.33229500     -1.41103100
C      11.78305800      5.33932200      1.40017900
C      12.63744200      6.24317400      0.70944000
C      12.63961400      6.23959100     -0.72223500
C      13.48999400      7.13902100     -1.40997500
C      13.48573500      7.14604400      1.39524600
C      14.30314600      8.01031000      0.69816100
C      14.30529200      8.00677200     -0.71474700
H       6.71167900     -0.05191600      2.38518700
H       6.71838800     -0.06330700     -2.38441100
H      -0.41924600      1.79576700      2.47694100
H      -0.41234100      1.78711100     -2.50361700
H      -2.81874300      2.52576300      2.47019500
H      -2.81264100      2.51374500     -2.50604300
H      -4.83264400      3.21127600      1.23005400
H      -4.82985300      3.20394300     -1.27481400
H       8.50711200     -7.19720200      2.51119600
H       8.50819100     -7.21080700     -2.46987600
H       9.06184400     -9.64351000      2.51680100
H       9.06293000     -9.65710100     -2.46188100
H       9.53494100    -11.73824600     -1.21106500
H       9.53439300    -11.73145500      1.27757000
H      11.76841100      5.30786600     -2.49585800
H      11.76087700      5.32031000      2.48505300
H      13.48885400      7.13340900     -2.49663200
H      13.48129500      7.14587200      2.48190900
H      14.94937200      8.69814100      1.23535000
H      14.95315400      8.69190700     -1.25340900
