   101
 Generated by Multiwfn
C       0.21002400     -0.03525500     -1.41048900
C      -0.62155700     -1.17787300     -0.79995200
C      -0.68044800     -1.14991200      0.56195600
C       0.16298400     -0.03056300      1.17915700
C      -0.43633900      1.22215600     -0.80091600
C      -0.49878700      1.20470800      0.56100300
C       1.55212700     -0.13680900      0.58230200
C       1.57922900     -0.13950700     -0.76395500
C       2.85120400     -0.23454400     -1.51354100
C       2.78328500     -0.22753900      1.39315800
C      -1.69138500     -1.86898600      1.30452700
C      -1.42300900     -2.12845300     -1.56463300
C      -1.07950800      2.28559200     -1.56625000
C      -1.78918500      3.34011100     -0.75815700
C      -1.92451000      3.24291700      0.60014600
C      -1.38456300      2.07325200      1.30333900
O      -1.06204000      2.34505600     -2.79088500
O      -1.74335600      1.78872100      2.48161400
O       2.88944900     -0.23906500     -2.72918400
O       2.75441600     -0.22520600      2.61257000
O      -1.41454500     -2.19097800     -2.78917600
O      -2.00134500     -1.53126400      2.48254300
S      -2.79995900      4.35199500      1.69978200
S      -2.43584100      4.57942500     -1.83665500
C      -3.04379100      5.80580400     -0.70640700
C      -3.16683100      5.73077800      0.64365500
C      -3.47415600      7.01833200     -1.46792700
C      -3.69850200      6.88196800      1.44677500
O      -3.38997100      7.02383100     -2.68550900
O      -3.80468700      6.77064200      2.65717600
C      -4.00725900      8.17288300     -0.70186500
C      -4.09301400      8.12053000      0.72047800
C      -4.42131800      9.30229400     -1.38002200
C      -4.56034200      9.21777500      1.42253200
C      -4.92007300     10.43538900     -0.68469300
C      -4.97358800     10.40312200      0.75103100
C      -5.36890700     11.59928200     -1.36586200
C      -5.44164600     11.55662700      1.44407100
C      -5.83393300     12.69373100     -0.66479700
C      -5.85623900     12.68153400      0.75381100
C       4.08602900     -0.32305000      0.65161700
C       4.11668900     -0.32616400     -0.70432100
S       5.51826300     -0.42873900     -1.78847000
S       5.44488400     -0.42127200      1.79644800
C      13.10971800     -0.94757500     -1.27913000
C      13.08142400     -0.94522100      1.53248600
C      14.28046700     -1.02761900      0.84851400
C      14.29154200     -1.02851500     -0.57000900
C       6.85102400     -0.51799100      0.71075800
C       6.87520400     -0.52049500     -0.64458500
C       8.16189700     -0.60911700     -1.40510000
C       8.11199800     -0.60416400      1.51824800
O       8.13413800     -0.60858600     -2.62498300
O       8.04045200     -0.59930300      2.73627300
C       9.40599100     -0.69316500      0.79175100
C       9.42720000     -0.69516800     -0.63403900
C      10.62999400     -0.77777600     -1.30795100
C      10.59140500     -0.77431400      1.49983900
C      11.84459900     -0.86045400      0.83187700
C      11.86138300     -0.86190400     -0.60515900
C      -2.28956800     -3.05814400     -0.75621500
C      -2.40796500     -2.94011400      0.60199500
S      -3.44644600     -3.89722700      1.70261200
S      -3.12284900     -4.18079600     -1.83455500
C      -3.92420200     -5.29078800     -0.70444400
C      -4.03378600     -5.19674600      0.64556200
C      -4.74683900     -6.24561300      1.44833200
C      -4.54738900     -6.41632200     -1.46627300
O      -4.46382700     -6.43594500     -2.68375200
O      -4.83241800     -6.11916300      2.65888700
C      -5.26390400     -7.46739400     -0.70070600
C      -5.33982900     -7.40213000      0.72167300
C      -5.98146400     -8.40768800      1.42338900
C      -5.85859700     -8.51288800     -1.37920500
C      -6.53742800     -9.54851500     -0.68422300
C      -6.58463700     -9.50838600      0.75152500
C      -7.23651300    -10.56907800      1.44429500
C      -7.83115400    -11.60995400      0.75383100
C      -7.81128300    -11.62540700     -0.66480400
C      -7.17219800    -10.62232800     -1.36561800
H       0.22699100     -0.03698800     -2.50379800
H       0.19258100     -0.03241100      2.27229500
H      -4.35570200      9.30940000     -2.46995800
H      -4.61209000      9.15669700      2.51173700
H      -5.34112600     11.61126200     -2.45802600
H      -5.46654200     11.53694100      2.53636400
H      -6.19171700     13.57538500     -1.20548600
H      -6.20294000     13.57629900      1.28943700
H      13.11754400     -0.94827000     -2.37166800
H      13.06569700     -0.94398100      2.62506200
H      15.23308900     -1.09296300      1.39111900
H      15.24429900     -1.09387400     -1.10380400
H      10.61803200     -0.77736800     -2.39983900
H      10.54863000     -0.77112300      2.59109000
H      -6.02233500     -8.33938100      2.51262800
H      -5.79502000     -8.53041300     -2.46915000
H      -7.25773800    -10.54586100      2.53659700
H      -8.32079000    -12.43523700      1.28943000
H      -8.30957700    -12.43614600     -1.20549200
H      -7.14687800    -10.63840900     -2.45779200
Li     -2.02066600      0.14048300      3.24125500
