   110
 Generated by Multiwfn
C      -0.18737900     -0.33708700      1.38967000
C       0.89840900     -1.26829400      0.81430700
C       0.87229400     -1.27483200     -0.58568300
C      -0.22588800     -0.36632900     -1.15626600
C       0.21862300      1.04065100      0.77439900
C       0.14879100      1.02700400     -0.62656300
C      -1.59192500     -0.64944200     -0.56788200
C      -1.56791100     -0.71183200      0.81866700
C      -2.77454300     -0.92363400      1.55571500
C      -2.77962300     -0.51050500     -1.35883200
C       1.97250200     -1.71501400     -1.35054100
C       2.03756800     -1.69932200      1.55675500
C       0.83964100      2.12227900      1.42084100
C       1.23705000      3.23360400      0.59694800
C       1.04220600      3.25172900     -0.79680700
C       0.50930200      2.09809400     -1.46194700
O       1.13448400      2.09045800      2.74470900
O       0.40652600      1.93153000     -2.80090300
O      -2.82385900     -1.07621400      2.85452200
O      -2.71098300     -0.05492900     -2.58894200
O       2.21750300     -1.38793600      2.81403300
O       2.06868900     -1.45332100     -2.69027800
S       1.68883900      4.60989200     -1.77677500
S       2.24055300      4.48907700      1.42812100
C       1.93858400      6.07271200      0.64087000
C       1.72579200      6.11148300     -0.76744100
C       2.11580400      7.22807700      1.40920500
C       1.68774400      7.32029300     -1.49028800
O       2.33698700      7.18146200      2.71321900
O       1.45323600      7.34956200     -2.77406300
C       2.14351000      8.51202500      0.70040700
C       1.97076000      8.55562300     -0.73956000
C       2.38217900      9.73393600      1.36288000
C       2.12076800      9.78500400     -1.40440100
C       2.52390500     10.97876200      0.70358000
C       2.42196500     11.00005600     -0.73696100
C       2.77215900     12.22488900      1.38380100
C       2.64403600     12.25463600     -1.41203400
C       2.95825800     13.41473800      0.70369200
C       2.91956900     13.42704300     -0.72875000
C      -3.98866700     -0.76304800     -0.63769800
C      -3.97548300     -0.94320000      0.75820100
S      -5.47074500     -0.97528100      1.74411300
S      -5.56134700     -0.58854600     -1.49940100
C     -12.61125200     -3.86960300      1.37583900
C     -12.61296400     -3.81279400     -1.42347000
C     -13.75681600     -4.21059600     -0.74491600
C     -13.75495400     -4.23059100      0.68328600
C      -6.79878600     -1.55484400     -0.60686400
C      -6.77538300     -1.67016900      0.78175200
C      -7.88328800     -2.24399900      1.54357100
C      -7.88071900     -2.07771300     -1.40477400
O      -7.84483100     -2.34910800      2.77990900
O      -7.81073500     -2.07168300     -2.69113100
C      -9.07404600     -2.58441200     -0.69910100
C      -9.08115700     -2.64827000      0.74239900
C     -10.23067200     -3.07927700      1.39785500
C     -10.22581100     -2.98188200     -1.39550700
C     -11.41113700     -3.41816500     -0.73573800
C     -11.41404800     -3.45869100      0.70503300
C       3.04435000     -2.36613700      0.77405200
C       3.03740200     -2.32990900     -0.62839700
S       4.50086400     -2.81099000     -1.57640400
S       4.51504400     -2.94303600      1.63010600
C       5.21163600     -4.27949100      0.63876800
C       5.20339300     -4.23174600     -0.75721400
C       5.89515600     -5.21245400     -1.58499800
C       5.86028600     -5.32664200      1.37556500
O       5.73390900     -5.41206100      2.66010300
O       5.85021000     -5.18593400     -2.82825500
C       6.69621100     -6.26646800      0.61503000
C       6.71714100     -6.21924600     -0.82927700
C       7.53734300     -7.11356200     -1.52002600
C       7.50815500     -7.20237100      1.27270800
C       8.36693800     -8.09519000      0.57827000
C       8.37855600     -8.05947700     -0.86344800
C       9.24588700     -8.97183700     -1.55770400
C      10.07335900     -9.86268100     -0.88826100
C      10.07436200     -9.88108400      0.54117200
C       9.23942800     -9.02602800      1.24106600
H      -0.23229900     -0.34120700      2.48579600
H      -0.27388400     -0.46068800     -2.24866400
H       2.45924300      9.74798300      2.45801800
H       2.01075900      9.77676800     -2.49130200
H       2.81355400     12.21366200      2.47790300
H       2.59698800     12.25845500     -2.50481000
H       3.13364900     14.37435400      1.24001700
H       3.12187800     14.38807900     -1.25486800
H     -12.60551800     -3.88796600      2.46920800
H     -12.60792600     -3.78971500     -2.51701700
H     -14.68853600     -4.51930900     -1.27536900
H     -14.67673100     -4.53309700      1.21951100
H     -10.20364800     -3.11126800      2.48979000
H     -10.20238700     -2.93357000     -2.48664500
H       7.52855200     -7.05838500     -2.61164500
H       7.48049600     -7.21843200      2.36457100
H       9.24318400     -8.94633100     -2.65121400
H      10.74362700    -10.57118400     -1.42847500
H      10.75544100    -10.58489200      1.06641000
H       9.23537000     -9.04131900      2.33473700
Li      1.53806800      0.36468400     -2.85945800
Li      1.72659000      0.32853800      3.14144400
Li      1.24412000      3.74316900      3.39221600
Li      3.05524800     -2.77199500     -3.42235800
Li     -1.40035400      1.20249600     -2.91744700
Li     -4.24969900     -1.69654400      3.63476800
Li      4.53801100     -4.41102000      3.48140100
Li     -6.28177500     -1.64829100     -3.47729400
Li      0.95417400      5.93345700     -3.62753500
Li      2.92107100      8.14783700      3.90585000
