   102
 Generated by Multiwfn
C      -0.28551100     -0.03326600      1.29088800
C       0.56297700     -1.16936800      0.69260800
C       0.56298300     -1.16932900     -0.69259400
C      -0.28548900     -0.03318500     -1.29080600
C       0.44507000      1.18217400      0.69269400
C       0.44506200      1.18223900     -0.69249600
C      -1.66208000     -0.10029000     -0.67357000
C      -1.66207800     -0.10029300      0.67356000
C      -2.92164100     -0.15759000      1.45161500
C      -2.92163600     -0.15762500     -1.45159700
C       1.58048600     -1.85665600     -1.43030800
C       1.58068600     -1.85651600      1.43028600
C       1.38707900      1.96951000      1.43039700
C       2.05917300      3.05613000      0.68685600
C       2.05903000      3.05624700     -0.68699900
C       1.38670800      1.96979100     -1.43047700
O       1.69647000      1.71729600      2.63684800
O       1.69537600      1.71775800     -2.63717600
O      -2.92810000     -0.15836000      2.67012000
O      -2.92815500     -0.15820900     -2.67010300
O       1.86246000     -1.57405400      2.63678500
O       1.86215800     -1.57434600     -2.63688800
S       2.93118300      4.18332500     -1.76297500
S       2.93151900      4.18309900      1.76281100
C       3.37414500      5.52221700      0.67984400
C       3.37403900      5.52229300     -0.67992300
C       3.83631200      6.71567800      1.46441400
C       3.83610600      6.71580900     -1.46445600
O       3.85664500      6.66574500      2.68326400
O       3.85630900      6.66596500     -2.68331400
C       4.28659100      7.92498100      0.71308200
C       4.28651600      7.92503000     -0.71307700
C       4.72029900      9.04569500      1.40163500
C       4.72017800      9.04577300     -1.40160900
C       5.16990600     10.21279100      0.71864200
C       5.16985600     10.21282100     -0.71858700
C       5.62469000     11.37857500      1.40356600
C       5.62461200     11.37861700     -1.40350100
C       6.06165100     12.49466300      0.71059900
C       6.06162200     12.49467400     -0.71052100
C      -4.21348400     -0.21516300     -0.67780400
C      -4.21348200     -0.21518500      0.67785900
S      -5.60534700     -0.27673800      1.78863900
S      -5.60534000     -0.27668600     -1.78858700
C     -13.26078700     -0.59555900      1.40438700
C     -13.26084600     -0.59554600     -1.40422300
C     -14.45699100     -0.64552000     -0.71009000
C     -14.45695300     -0.64552700      0.71030400
C      -6.99785900     -0.33435100     -0.67781800
C      -6.99785100     -0.33436900      0.67786700
C      -8.27797200     -0.38770600      1.46170300
C      -8.27798900     -0.38768100     -1.46165200
O      -8.22939900     -0.38602600      2.68052100
O      -8.22942500     -0.38598100     -2.68046900
C      -9.56484200     -0.44124200     -0.71311200
C      -9.56482600     -0.44125100      0.71317800
C     -10.76413800     -0.49133200      1.40265100
C     -10.76417300     -0.49131500     -1.40256300
C     -12.01228300     -0.54340400     -0.71859500
C     -12.01225800     -0.54341100      0.71871500
C       2.36062600     -2.86874200      0.68690900
C       2.36056300     -2.86883800     -0.68693800
S       3.34407300     -3.89966800     -1.76351000
S       3.34438500     -3.89954300      1.76347200
C       3.93103300     -5.18169200      0.67987500
C       3.93093000     -5.18177100     -0.67986500
C       4.52075600     -6.31772500     -1.46434700
C       4.52105000     -6.31760000      1.46433300
O       4.53489000     -6.26609500      2.68321500
O       4.53429400     -6.26636100     -2.68324600
C       5.10175900     -7.47009300      0.71306700
C       5.10164300     -7.47014500     -0.71309700
C       5.65600400     -8.53644000     -1.40161600
C       5.65619700     -8.53635800      1.40157000
C       6.23169400     -9.64689300      0.71858800
C       6.23161300     -9.64692600     -0.71864100
C       6.81205900    -10.75563000     -1.40352100
C       7.36939400    -11.81686600     -0.71061800
C       7.36944300    -11.81685100      0.71054200
C       6.81218700    -10.75558200      1.40345500
H      -0.33369500     -0.03546200      2.38370200
H      -0.33341400     -0.03548600     -2.38362000
H       4.71491700      9.01778100      2.49348900
H       4.71469800      9.01792400     -2.49346300
H       5.62321400     11.37406100      2.49643300
H       5.62307800     11.37413800     -2.49636800
H       6.41338200     13.39083300      1.24751300
H       6.41334200     13.39082600     -1.24745500
H     -13.25635900     -0.59537200      2.49715300
H     -13.25645700     -0.59534800     -2.49698900
H     -15.41684400     -0.68560300     -1.24734700
H     -15.41675700     -0.68561100      1.24761700
H     -10.73684100     -0.49024300      2.49448400
H     -10.73690200     -0.49021200     -2.49439600
H       5.64734400     -8.50943800     -2.49347300
H       5.64768900     -8.50929400      2.49342900
H       6.81003500    -10.75133500     -2.49639200
H       7.81767100    -12.66900800     -1.24753000
H       7.81774500    -12.66899400      1.24743700
H       6.81025900    -10.75125100      2.49632600
Li      1.87181000      0.07643700     -3.41748200
Li      1.87245200      0.07641700      3.41794300
