   103
 Generated by Multiwfn
C      -0.24867700      0.00046800      1.26444600
C       0.57108000     -1.16607800      0.67330400
C       0.56455100     -1.17873200     -0.70253900
C      -0.26062500     -0.03100700     -1.30677300
C       0.46438700      1.23603200      0.66083300
C       0.46488300      1.20709200     -0.73672500
C      -1.63928200     -0.09209300     -0.68785000
C      -1.63638400     -0.07336100      0.65911500
C      -2.89164400     -0.13264500      1.44302400
C      -2.90048500     -0.18428800     -1.46024100
C       1.56244300     -1.90375300     -1.44599700
C       1.58828700     -1.85915100      1.41396900
C       1.31159400      2.10179800      1.38074000
C       2.06233600      3.02398300      0.59851700
C       2.04639900      3.02574400     -0.79865400
C       1.34671900      1.99381000     -1.53128800
O       1.48590300      2.01152700      2.72855100
O       1.57597600      1.74526800     -2.77731600
O      -2.89753200     -0.09790700      2.66195300
O      -2.91637200     -0.20527500     -2.67788000
O       1.87318100     -1.52775000      2.61507800
O       1.81546800     -1.63292600     -2.66412500
S       2.92616200      4.20024300     -1.81805000
S       3.21779500      4.04973800      1.52008200
C       3.27510800      5.57199100      0.59871700
C       3.24268600      5.57058200     -0.77051500
C       3.53627100      6.77969800      1.41753500
C       3.58065200      6.82698800     -1.53300200
O       3.45657200      6.73784000      2.64214100
O       3.57868400      6.82929800     -2.75019900
C       3.94662100      8.02165100      0.68843400
C       3.96990400      8.03605800     -0.74042500
C       4.33549800      9.15278700      1.39134100
C       4.37526800      9.17901300     -1.40882800
C       4.77261200     10.33805700      0.72675200
C       4.78806500     10.34871800     -0.71016300
C       5.20621500     11.50939900      1.42190700
C       5.22695900     11.52584500     -1.38415500
C       5.63548800     12.63771900      0.73969900
C       5.64198400     12.64330500     -0.68210700
C      -4.19019300     -0.26011000     -0.67962200
C      -4.18621800     -0.23954000      0.67492900
S      -5.57919400     -0.32296900      1.78798700
S      -5.58384000     -0.37284200     -1.78568400
C     -13.22281100     -1.04429300      1.40899600
C     -13.22049200     -1.05231000     -1.39842500
C     -14.41461900     -1.15900300     -0.70616400
C     -14.41565700     -1.15704900      0.71483700
C      -6.97238500     -0.48393600     -0.67376700
C      -6.97192100     -0.46727500      0.68231900
C      -8.24946500     -0.57417300      1.46700000
C      -8.24995400     -0.60505600     -1.45584500
O      -8.20333900     -0.55134100      2.68569800
O      -8.20333500     -0.60927600     -2.67456600
C      -9.53415700     -0.71454600     -0.70654700
C      -9.53429200     -0.70311300      0.71965400
C     -10.73125500     -0.80983700      1.40850600
C     -10.72995100     -0.82776600     -1.39561300
C     -11.97546700     -0.93691700     -0.71240000
C     -11.97624500     -0.93036300      0.72492500
C       2.36424100     -2.86836200      0.68396100
C       2.35170700     -2.88777100     -0.69618000
S       3.33861100     -3.92623600     -1.76728700
S       3.36852800     -3.88562500      1.76135400
C       4.00502500     -5.14973400      0.68615400
C       3.99500500     -5.16193800     -0.67573800
C       4.63622600     -6.27358000     -1.45373800
C       4.65238800     -6.25125400      1.47382700
O       4.67102900     -6.19491500      2.69284900
O       4.64026300     -6.23519200     -2.67343500
C       5.28429000     -7.38331900      0.72735300
C       5.27868900     -7.39162400     -0.69838000
C       5.88199400     -8.43312300     -1.38394800
C       5.89053800     -8.42037800      1.41822900
C       6.51605600     -9.50713800      0.73839500
C       6.51330400     -9.51191800     -0.69881200
C       7.14617800    -10.59346500     -1.38170300
C       7.75480300    -11.62614300     -0.68836800
C       7.75475300    -11.62459000      0.73326200
C       7.14884900    -10.58779900      1.42404100
H      -0.30612500     -0.00055500      2.35805300
H      -0.31204100     -0.04263000     -2.39865000
H       4.31340500      9.11543900      2.48283400
H       4.38197300      9.16367300     -2.50091100
H       5.19727900     11.49786000      2.51484500
H       5.23394300     11.52786800     -2.47695500
H       5.97910700     13.54210600      1.27700600
H       5.98154800     13.54299600     -1.21796100
H     -13.21944700     -1.04120300      2.50183400
H     -13.21465900     -1.05484900     -2.49122800
H     -15.37249000     -1.24575800     -1.24441400
H     -15.37488400     -1.24666100      1.25054800
H     -10.70496700     -0.79948300      2.50038000
H     -10.70171500     -0.83247600     -2.48744900
H       5.86746500     -8.41121300     -2.47587900
H       5.88400500     -8.38865400      2.51004300
H       7.14278600    -10.59092100     -2.47463600
H       8.24460400    -12.45634300     -1.22514400
H       8.24219600    -12.45722400      1.26982200
H       7.14738300    -10.58159000      2.51700200
Li      1.84016400      0.07853200     -3.40013500
Li      1.79646200      0.23251200      3.15694800
Li      1.81083100      3.65382200      3.37824400
