   104
 Generated by Multiwfn
C       0.25065900     -0.00420900     -1.28395000
C      -0.59850000     -1.16704300     -0.71944300
C      -0.59221700     -1.20950400      0.67614600
C       0.24774700     -0.06293500      1.28315700
C      -0.45136200      1.23169800     -0.67670900
C      -0.46175400      1.19024300      0.71878500
C       1.63259600     -0.12885100      0.67337900
C       1.63434200     -0.09415500     -0.67443400
C       2.89593300     -0.12818500     -1.45103700
C       2.89087200     -0.22706600      1.44986300
C      -1.53459000     -1.97648600      1.39564900
C      -1.58445600     -1.82889400     -1.50933700
C      -1.29812900      2.10352300     -1.39563000
C      -2.05487900      3.01793100     -0.61341200
C      -2.05477900      3.00474400      0.78637800
C      -1.36249500      1.96296500      1.50961100
O      -1.46005700      2.01958800     -2.74400400
O      -1.61120600      1.67619000      2.74693000
O       2.91429800     -0.07435300     -2.66879800
O       2.90364600     -0.28236400      2.66761300
O      -1.79925000     -1.51511300     -2.74656700
O      -1.68456500     -1.87499200      2.74416200
S      -2.94781700      4.17043500      1.80653500
S      -3.20213200      4.04644400     -1.54388800
C      -3.32462100      5.55255300     -0.60302100
C      -3.30144600      5.53974600      0.76862900
C      -3.63868300      6.75278700     -1.41161100
C      -3.68795400      6.77796400      1.53839800
O      -3.56923400      6.72230600     -2.63773600
O      -3.69209500      6.77404400      2.75617300
C      -4.09155600      7.97704600     -0.67471400
C      -4.11608600      7.98276800      0.75383600
C      -4.51775800      9.09875300     -1.37179900
C      -4.55890800      9.11036300      1.42715800
C      -4.99261100     10.26723900     -0.70258000
C      -5.00830000     10.27199000      0.73444600
C      -5.46300200     11.42779500     -1.39345600
C      -5.48311700     11.43570000      1.41107600
C      -5.92656300     12.54154000     -0.70915300
C      -5.93220300     12.54416400      0.71344100
C       4.18890400     -0.26431000      0.67585400
C       4.19093200     -0.22457500     -0.67707400
S       5.59167600     -0.26676300     -1.78509300
S       5.58657400     -0.36497100      1.78394800
C      13.26467300     -0.68558700     -1.40297500
C      13.26365200     -0.70375900      1.40298500
C      14.46268600     -0.75643600      0.71093800
C      14.46296400     -0.75139700     -0.71079400
C       6.98633200     -0.40138800      0.67777700
C       6.98807300     -0.36798200     -0.67868300
C       8.27165900     -0.41665300     -1.46128300
C       8.26836300     -0.47917200      1.46059100
O       8.22823900     -0.38690400     -2.67977500
O       8.22200700     -0.50481700      2.67906200
C       9.56039200     -0.52339600      0.71274800
C       9.56164300     -0.49990700     -0.71323600
C      10.76326400     -0.55231000     -1.40149900
C      10.76123200     -0.58975600      1.40118700
C      12.01250300     -0.63986200      0.71859500
C      12.01327000     -0.62580400     -0.71872300
C      -2.39404300     -2.78211500     -0.78562200
C      -2.39410100     -2.79580900      0.61409300
S      -3.65238900     -3.68177800      1.54771700
S      -3.42110200     -3.83218700     -1.80589900
C      -3.94106800     -5.14740300     -0.76772000
C      -3.96433600     -5.15839500      0.60390900
C      -4.42691000     -6.31013700      1.41196200
C      -4.47900000     -6.32777000     -1.53770900
O      -4.48215600     -6.32321300     -2.75548900
O      -4.35527200     -6.28829700      2.63816200
C      -5.05364400     -7.47054800     -0.75369600
C      -5.02871400     -7.46834500      0.67485100
C      -5.59109200     -8.52863800      1.37157400
C      -5.63307400     -8.53439000     -1.42728500
C      -6.22332800     -9.63157500     -0.73494300
C      -6.20729900     -9.62907500      0.70209200
C      -6.81807000    -10.72253900      1.39268100
C      -7.41608300    -11.77022900      0.70826300
C      -7.42193600    -11.77202100     -0.71439400
C      -6.83880200    -10.72749000     -1.41174900
H       0.31119900      0.00243900     -2.37667300
H       0.30697000     -0.07640000      2.37586100
H      -4.49420600      9.06638600     -2.46344500
H      -4.56591400      9.08898700      2.51923000
H      -5.45408500     11.41921700     -2.48649100
H      -5.48935700     11.43428800      2.50401200
H      -6.29850700     13.43667200     -1.24548600
H      -6.29856900     13.43619000      1.24948200
H      13.26022400     -0.67881700     -2.49585300
H      13.25842900     -0.71004300      2.49586400
H      15.42660900     -0.80176900      1.24756000
H      15.42662500     -0.80130200     -1.24740300
H      10.73658800     -0.53524100     -2.49332500
H      10.73284100     -0.60413900      2.49301000
H      -5.56376700     -8.49976600      2.46323800
H      -5.63723800     -8.51205100     -2.51936300
H      -6.80829700    -10.71528100      2.48572400
H      -7.89615000    -12.61251000      1.24453400
H      -7.89612100    -12.61202000     -1.25043300
H      -6.84475400    -10.72511100     -2.50469000
Li     -1.78531600     -0.05825900      3.20476300
Li     -1.76943000      0.22719600     -3.20666500
Li     -1.78897400      3.64960300     -3.39710500
Li     -2.20149900     -3.45444200      3.39880600
