   105
 Generated by Multiwfn
C       0.14709000     -0.28487800     -1.44594100
C      -0.98235200     -1.15317200     -0.86557400
C      -0.95376900     -1.18028400      0.52715500
C       0.18255100     -0.33775600      1.10570900
C      -0.18509100      1.10004800     -0.81972400
C      -0.11782800      1.07085000      0.57426400
C       1.51620100     -0.69607700      0.49975500
C       1.49172800     -0.72654700     -0.86485800
C       2.71597900     -0.97394100     -1.61334000
C       2.73351300     -0.61409100      1.26767900
C      -2.07842100     -1.56691400      1.28759000
C      -2.15454500     -1.48961200     -1.60765500
C      -0.75163300      2.21927000     -1.45756900
C      -1.08699900      3.32714900     -0.61677100
C      -0.89811000      3.33499200      0.77554100
C      -0.42963100      2.14747700      1.42397200
O      -1.03990100      2.22580800     -2.77743100
O      -0.32073100      1.96044100      2.75206700
O       2.76373700     -0.98532500     -2.85649700
O       2.69727500     -0.09590900      2.44731400
O      -2.31739200     -1.11937000     -2.83628800
O      -2.15827700     -1.30072100      2.62657400
S      -1.23105700      4.74608400      1.84044500
S      -1.95301400      4.64768400     -1.47624100
C      -1.58564000      6.13701900     -0.57656400
C      -1.39191900      6.14543000      0.77508400
C      -1.68778500      7.37425500     -1.40103100
C      -1.39895300      7.45891900      1.52773300
O      -1.76198400      7.29688000     -2.62207800
O      -1.25980200      7.46804300      2.73659300
C      -1.74789600      8.68411600     -0.67888300
C      -1.64274600      8.71793200      0.74616600
C      -1.94404700      9.86508700     -1.38179700
C      -1.77679000      9.92841300      1.41132300
C      -2.07603000     11.12498000     -0.72155100
C      -2.01201200     11.15254100      0.71406100
C      -2.28095800     12.35624000     -1.42085800
C      -2.19542700     12.40309400      1.38110900
C      -2.44105300     13.55861900     -0.74658100
C      -2.41550700     13.57703100      0.67640200
C       3.94975300     -1.02379000      0.58442000
C       3.93154400     -1.20655800     -0.78816800
S       5.31267700     -1.63196600     -1.83456500
S       5.38391500     -1.17097100      1.66694600
C      12.49804600     -4.28323300     -1.34174500
C      12.51397900     -4.18358900      1.45934500
C      13.63068000     -4.64927200      0.77882400
C      13.62498500     -4.68267600     -0.64353200
C       6.65530300     -1.87546000      0.64128200
C       6.62652600     -2.03069500     -0.71600900
C       7.81360200     -2.55407500     -1.46601100
C       7.85771300     -2.27542000      1.44665900
O       7.77829600     -2.64041700     -2.68370100
O       7.85999500     -2.12801300      2.65918400
C       9.05091100     -2.83785500      0.72676600
C       9.03418500     -2.94590800     -0.69416800
C      10.15164600     -3.41540600     -1.36435100
C      10.17927600     -3.23787800      1.42984900
C      11.34019600     -3.74556900      0.76692700
C      11.32923500     -3.81625900     -0.66856000
C      -3.18217700     -2.15888000     -0.84198700
C      -3.15921700     -2.13112500      0.55927900
S      -4.60734900     -2.59579000      1.53074900
S      -4.49117500     -2.89233800     -1.81209900
C      -5.32800700     -3.99083200     -0.73070000
C      -5.33055900     -3.96437800      0.64094000
C      -6.08601400     -4.92508000      1.48305800
C      -6.18028500     -4.99543200     -1.46553500
O      -6.20676000     -5.00956400     -2.68282700
O      -6.00586700     -4.88518800      2.70726300
C      -7.02370500     -5.92851400     -0.64957600
C      -6.98352200     -5.90293400      0.77846900
C      -7.79900200     -6.76637600      1.50027500
C      -7.86888700     -6.81553500     -1.29666600
C      -8.71768300     -7.70635900     -0.57888200
C      -8.68934800     -7.68335000      0.85781700
C      -9.55976800     -8.57233500      1.56888700
C     -10.41627300     -9.44175200      0.90522200
C     -10.43091000     -9.45987400     -0.51781100
C      -9.60208200     -8.61411500     -1.23407600
H       0.19472900     -0.28975300     -2.54115000
H       0.22945600     -0.42784900      2.19663400
H      -2.01358300      9.81146800     -2.47066000
H      -1.70257400      9.92941600      2.50122300
H      -2.31140200     12.33197100     -2.51321800
H      -2.16414700     12.41745100      2.47353200
H      -2.58760600     14.51431200     -1.29163300
H      -2.57876700     14.53624400      1.20321300
H      12.48734300     -4.31796100     -2.43419600
H      12.51418600     -4.14487100      2.55189600
H      14.53548100     -5.00325200      1.31457900
H      14.52659500     -5.02519000     -1.18026200
H      10.11184200     -3.47552200     -2.45421800
H      10.16613000     -3.15088500      2.51880000
H      -7.75429700     -6.72415700      2.59106700
H      -7.87865300     -6.81406000     -2.38887600
H      -9.53908900     -8.55114900      2.66169800
H     -11.09928500    -10.13004100      1.45040300
H     -11.10815800    -10.15195700     -1.04444200
H      -9.61571000     -8.62755700     -2.32682800
Li     -1.54448100      0.47684600      2.88912200
Li     -1.72084200      0.52025500     -3.29193500
Li     -0.97773700      3.86159200     -3.48911100
Li     -3.08329300     -2.65270800      3.35411200
Li      1.47384400      1.23358200      2.92006700
