   106
 Generated by Multiwfn
C      -0.14929000     -0.30124200      1.41225000
C       0.99942800     -1.14861900      0.84087800
C       0.98301400     -1.16815500     -0.55105000
C      -0.15614100     -0.33545500     -1.13667700
C       0.16613300      1.09705700      0.79704800
C       0.11550400      1.07286500     -0.59778700
C      -1.50382800     -0.69726000     -0.55980800
C      -1.49283000     -0.76004700      0.82205000
C      -2.69762000     -1.04561200      1.53674400
C      -2.68465800     -0.62773100     -1.36733500
C       2.12323400     -1.53577000     -1.30178200
C       2.17228800     -1.47327900      1.59146700
C       0.69058400      2.23373400      1.44319100
C       0.99625700      3.35672800      0.61070800
C       0.81671600      3.36442400     -0.78352400
C       0.39339400      2.16540400     -1.44138100
O       0.97088000      2.24179100      2.76773100
O       0.29955100      1.98347700     -2.76934000
O      -2.75414500     -1.18455300      2.83741500
O      -2.61597300     -0.15881000     -2.58271300
O       2.31655100     -1.10435600      2.82457300
O       2.21120400     -1.25872100     -2.63708600
S       1.11062000      4.78993400     -1.84030700
S       1.82447600      4.70225300      1.47213900
C       1.41582500      6.18706400      0.58045000
C       1.22747300      6.19195500     -0.77410800
C       1.48353900      7.42365900      1.40615900
C       1.19933200      7.50482900     -1.52425300
O       1.55937800      7.34979800      2.62834800
O       1.06216900      7.51496600     -2.73403500
C       1.50851500      8.73755200      0.68521900
C       1.40520500      8.77005400     -0.74001300
C       1.66957400      9.92434200      1.38864800
C       1.50513300      9.98504000     -1.40379900
C       1.76585400     11.18892400      0.72976500
C       1.70291000     11.21554200     -0.70598800
C       1.93336700     12.42702800      1.42887800
C       1.84968900     12.47213900     -1.37221700
C       2.05817600     13.63464400      0.75560000
C       2.03348400     13.65271100     -0.66792200
C      -3.89115600     -0.99772600     -0.67896300
C      -3.86984400     -1.16791300      0.71672800
S      -5.36523900     -1.32166500      1.69136800
S      -5.35255200     -1.19483200     -1.69992200
C     -12.28190400     -4.67876000      1.33341100
C     -12.30176600     -4.60038800     -1.46758300
C     -13.40400800     -5.09292800     -0.78386700
C     -13.39703500     -5.12024800      0.63949000
C      -6.56676500     -1.99689400     -0.70824100
C      -6.57452100     -2.10593200      0.66432100
C      -7.67201700     -2.72501700      1.43370500
C      -7.72491800     -2.52866300     -1.50792800
O      -7.62062200     -2.80306700      2.66082000
O      -7.73818000     -2.44516800     -2.72546400
C      -8.88615200     -3.12703400     -0.75683800
C      -8.86564100     -3.20871900      0.66879600
C      -9.96449600     -3.71896900      1.34420100
C      -9.99959000     -3.58419200     -1.44975200
C     -11.14139100     -4.12149000     -0.77957600
C     -11.12734100     -4.17615900      0.65667400
C       3.21834500     -2.12192500      0.83349000
C       3.20604000     -2.08862600     -0.56898700
S       4.66975300     -2.51634900     -1.53535000
S       4.53491400     -2.83354800      1.81094200
C       5.43050900     -3.88717500      0.73151000
C       5.44524400     -3.85291600     -0.64142800
C       6.25536100     -4.77019400     -1.47966200
C       6.32014700     -4.85669400      1.46869500
O       6.33317500     -4.88207700      2.68657000
O       6.19184400     -4.72434700     -2.70501100
C       7.21740900     -5.74457100      0.65654200
C       7.18865700     -5.71304000     -0.77147600
C       8.04760900     -6.53646300     -1.49019700
C       8.09905800     -6.59461000      1.30616300
C       8.99444700     -7.44280000      0.59160800
C       8.97318800     -7.41658500     -0.84522200
C       9.88535300     -8.26576700     -1.55372000
C      10.77688200     -9.09866500     -0.88881700
C      10.78850500     -9.11755000      0.53471800
C       9.91809600     -8.31112800      1.24831700
H      -0.20029000     -0.31216400      2.50757600
H      -0.19840500     -0.42160000     -2.22818000
H       1.73885200      9.87173100      2.47763000
H       1.43288800      9.98388600     -2.49385500
H       1.96335800     12.40342000      2.52135000
H       1.81928900     12.48529900     -2.46474000
H       2.17562100     14.59583900      1.30022200
H       2.16822700     14.61742100     -1.19464000
H     -12.26984200     -4.70491600      2.42624500
H     -12.30373200     -4.56874000     -2.56037300
H     -14.29827100     -5.47089600     -1.31987800
H     -14.29085400     -5.49250800      1.17497800
H      -9.92296500     -3.75831600      2.43504000
H      -9.98916700     -3.51533700     -2.54006000
H       8.00931700     -6.49056500     -2.58111200
H       8.10026400     -6.59751400      2.39846800
H       9.86796700     -8.24333100     -2.64660900
H      11.49044100     -9.75728400     -1.43319800
H      11.49788200     -9.77884500      1.06166400
H       9.92805500     -8.32561800      2.34118100
Li      1.52556300      0.49893500     -2.89307200
Li      1.69612200      0.54305800      3.23417400
Li      0.88011900      3.87722300      3.47072600
Li      3.16629800     -2.57746300     -3.37520500
Li     -1.47635600      1.19974700     -3.01210900
Li     -4.11048700     -1.94844600      3.60107000
