   107
 Generated by Multiwfn
C      -0.15175900     -0.31805500      1.39983200
C       1.00507300     -1.15712800      0.82103000
C       0.98127700     -1.16014100     -0.57902100
C      -0.17409300     -0.33451900     -1.14813800
C       0.15415200      1.08744800      0.79044300
C       0.09477600      1.07230600     -0.60371700
C      -1.51706700     -0.70685500     -0.56646200
C      -1.49949400     -0.77970900      0.81489400
C      -2.70355300     -1.07308300      1.53132700
C      -2.70402500     -0.63227700     -1.36718100
C       2.10864500     -1.51243900     -1.34756500
C       2.17508900     -1.49468000      1.56164800
C       0.68771400      2.22001000      1.43855500
C       0.98514800      3.35137200      0.61364100
C       0.79825100      3.36701700     -0.78000000
C       0.37244200      2.17028600     -1.44213500
O       0.98495900      2.21273100      2.76070000
O       0.27453900      1.99454600     -2.76999200
O      -2.75579100     -1.22156400      2.83240200
O      -2.64176600     -0.15185700     -2.57791200
O       2.33244400     -1.17623600      2.82116500
O       2.18153800     -1.25006200     -2.68715700
S       1.08968400      4.79834000     -1.83260400
S       1.81202700      4.69610600      1.48286500
C       1.42981100      6.18941500      0.58915900
C       1.23691600      6.19750900     -0.76486200
C       1.52881800      7.42660900      1.41299600
C       1.22954100      7.51291700     -1.51476300
O       1.61760900      7.35142600      2.63404200
O       1.08772900      7.52509000     -2.72377000
C       1.56731100      8.74255700      0.69252300
C       1.45787100      8.77702400     -0.73217400
C       1.74533300      9.92854000      1.39482400
C       1.57122200      9.99185500     -1.39592200
C       1.85282200     11.19369800      0.73628000
C       1.78633000     11.22143800     -0.69936300
C       2.03373800     12.43166200      1.43443100
C       1.94590800     12.47805300     -1.36528500
C       2.16890700     13.63952700      0.76189400
C       2.14331100     13.65830300     -0.66229100
C      -3.90837700     -1.00893900     -0.67803800
C      -3.88036600     -1.19188300      0.71624700
S      -5.37272400     -1.35438500      1.69771900
S      -5.37509300     -1.18916300     -1.69693400
C     -12.39500300     -4.51045600      1.32935600
C     -12.41312900     -4.42556500     -1.47025100
C     -13.52824500     -4.89419500     -0.78880000
C     -13.52183100     -4.92354200      0.63519200
C      -6.60645800     -1.96630700     -0.70568200
C      -6.61220000     -2.08820400      0.66607200
C      -7.72822500     -2.67743600      1.43380600
C      -7.78236200     -2.46174900     -1.50549500
O      -7.67748700     -2.76183900      2.66058200
O      -7.79598300     -2.36996200     -2.72230900
C      -8.95876400     -3.03568500     -0.75633200
C      -8.93829400     -3.12446700      0.66895000
C     -10.05080200     -3.60915500      1.34258300
C     -10.08480600     -3.46266500     -1.44978200
C     -11.24027700     -3.97528100     -0.78157100
C     -11.22679300     -4.03455100      0.65458800
C       3.22983100     -2.07258600      0.77524800
C       3.21756500     -2.03899100     -0.62698600
S       4.70384000     -2.41921800     -1.58233800
S       4.74342700     -2.53263000      1.62405300
C       5.48905800     -3.84377300      0.63560500
C       5.47688200     -3.80001300     -0.75481600
C       6.20955400     -4.75814400     -1.57842200
C       6.17658600     -4.87047100      1.37132100
O       6.04555900     -4.96601800      2.64909400
O       6.15337100     -4.73705200     -2.81860300
C       7.05888400     -5.77503100      0.61235800
C       7.07855000     -5.72569500     -0.82826900
C       7.93608600     -6.57810900     -1.52295100
C       7.90787300     -6.67054700      1.27192800
C       8.80763700     -7.52120500      0.57495600
C       8.81896700     -7.48232700     -0.86532100
C       9.72841300     -8.34792900     -1.56271700
C      10.59550500     -9.19723300     -0.89267800
C      10.59466600     -9.21989300      0.53525400
C       9.72003100     -8.40922600      1.23799200
H      -0.20031900     -0.33156500      2.49583000
H      -0.22225000     -0.41475900     -2.23985500
H       1.81841300      9.87511100      2.48357400
H       1.49475000      9.99159300     -2.48574700
H       2.06507100     12.40774400      2.52691400
H       1.91384900     12.49123000     -2.45781500
H       2.29504200     14.60160300      1.30643000
H       2.28844800     14.62426800     -1.18842000
H     -12.38385200     -4.53922800      2.42219300
H     -12.41375300     -4.39147400     -2.56302200
H     -14.43318800     -5.25209000     -1.32511100
H     -14.42656100     -5.27479500      1.16973400
H     -10.00958400     -3.65438100      2.43327300
H     -10.07337400     -3.38940400     -2.53984700
H       7.92566900     -6.52347600     -2.61431100
H       7.87995000     -6.69050900      2.36355400
H       9.72608100     -8.31959600     -2.65588700
H      11.29871200     -9.86739000     -1.43486200
H      11.30535400     -9.89001700      1.05998800
H       9.71540600     -8.42824100      2.33135400
Li      1.49653300      0.50371300     -2.92840600
Li      1.70993800      0.49274400      3.16684100
Li      0.88613700      3.83980600      3.47686100
Li      3.22535700     -2.51453000     -3.42740500
Li     -1.50122800      1.20528200     -3.00934500
Li     -4.11797000     -1.96468800      3.60315900
Li      4.79469200     -4.00482000      3.46971800
