   108
 Generated by Multiwfn
C      -0.12613200     -0.31111900      1.40565800
C       1.02273700     -1.15899300      0.82567600
C       0.99492000     -1.16638200     -0.57409500
C      -0.16297000     -0.33766500     -1.14145100
C       0.17294100      1.09324700      0.79219400
C       0.10728100      1.07367200     -0.60359400
C      -1.50549400     -0.71175900     -0.55402900
C      -1.47805300     -0.77582300      0.83165900
C      -2.67018200     -1.06408500      1.56719300
C      -2.70050400     -0.64150700     -1.34466000
C       2.12305300     -1.51973400     -1.34296900
C       2.19415800     -1.49489600      1.56601900
C       0.70512400      2.22822900      1.43351100
C       0.99753100      3.35929700      0.60215500
C       0.80429400      3.37240500     -0.78970500
C       0.37948300      2.16950100     -1.44488400
O       1.00915200      2.22822200      2.75444500
O       0.28088200      1.98473600     -2.77475900
O      -2.71096100     -1.22318100      2.86383900
O      -2.66468100     -0.17822000     -2.57043400
O       2.35336600     -1.16292700      2.82068700
O       2.19629500     -1.25176500     -2.68195500
S       1.09854300      4.80562600     -1.84336700
S       1.83617800      4.70611900      1.45698900
C       1.42834900      6.20496400      0.58056500
C       1.23047300      6.21589200     -0.77476300
C       1.51776400      7.43438400      1.41137700
C       1.20521800      7.52625300     -1.51951600
O       1.61356700      7.35390100      2.63506200
O       1.05754300      7.54263800     -2.73166300
C       1.54092600      8.75134000      0.69418700
C       1.42598800      8.78826600     -0.73185700
C       1.71165100      9.94008900      1.39789500
C       1.52912200     10.00863100     -1.39087600
C       1.80743600     11.20776200      0.74345100
C       1.73730800     11.23786500     -0.69279500
C       1.98020100     12.44834800      1.44301200
C       1.88795100     12.49905000     -1.35534900
C       2.10544800     13.65943700      0.77397600
C       2.07840600     13.67984200     -0.65151200
C      -3.89109900     -0.97389500     -0.62571500
C      -3.86754400     -1.16003300      0.76857200
S      -5.35196500     -1.30922200      1.75450600
S      -5.46509300     -0.88842200     -1.49326100
C     -12.30335900     -4.61205800      1.33664100
C     -12.29966500     -4.53938500     -1.46316100
C     -13.41835900     -5.01175300     -0.79049100
C     -13.41906200     -5.03892500      0.63677800
C      -6.63936200     -1.93151600     -0.60871700
C      -6.61189000     -2.05757600      0.77750400
C      -7.68908500     -2.70147600      1.53134900
C      -7.68757700     -2.51326700     -1.41391500
O      -7.64704500     -2.81168000      2.76540200
O      -7.61456100     -2.49187400     -2.69713700
C      -8.84973500     -3.09872400     -0.71632000
C      -8.85727400     -3.17230600      0.72377900
C      -9.97870400     -3.67704400      1.37279900
C      -9.97044700     -3.56125900     -1.42065600
C     -11.12856600     -4.07504800     -0.76782500
C     -11.13332300     -4.12431100      0.67210100
C       3.24702500     -2.08079400      0.78061100
C       3.23312700     -2.04734600     -0.62178900
S       4.72650700     -2.41684900     -1.57220000
S       4.76171400     -2.54190300      1.62974300
C       5.53301300     -3.83501900      0.63877400
C       5.51830000     -3.78901000     -0.75448100
C       6.26600300     -4.73016800     -1.58418000
C       6.24532600     -4.84491100      1.37448400
O       6.12409500     -4.93784100      2.65570000
O       6.21051200     -4.70868200     -2.82536800
C       7.13655200     -5.73100300      0.61211000
C       7.15212700     -5.68171200     -0.83157500
C       8.02514700     -6.52081900     -1.52498800
C       8.00421100     -6.61477900      1.26850800
C       8.91607800     -7.45125300      0.57143900
C       8.92509200     -7.41183000     -0.86976100
C       9.84839200     -8.26372100     -1.56673300
C      10.73017200     -9.10133400     -0.89844200
C      10.73040700     -9.12494000      0.53019700
C       9.84352600     -8.32665400      1.23281400
H      -0.16798100     -0.32245500      2.50169600
H      -0.20809600     -0.42328600     -2.23330800
H       1.78849300      9.88388400      2.48634200
H       1.45017200     10.01006700     -2.48059300
H       2.01311000     12.42205800      2.53554800
H       1.85479800     12.51389900     -2.44796600
H       2.22460400     14.62437600      1.31881500
H       2.21759000     14.64874900     -1.17601800
H     -12.30080000     -4.63644600      2.42977700
H     -12.29221900     -4.50953200     -2.55642200
H     -14.32685500     -5.37524800     -1.32543200
H     -14.31980700     -5.39966000      1.16939500
H      -9.95432200     -3.71488200      2.46451200
H      -9.94635400     -3.50397000     -2.51127300
H       8.01198100     -6.46577800     -2.61648000
H       7.97899400     -6.63445000      2.36030800
H       9.84517400     -8.23494100     -2.66003500
H      11.44501400     -9.76173200     -1.44055900
H      11.45207700     -9.78606600      1.05427300
H       9.83983900     -8.34584200      2.32630300
Li      1.53007100      0.51749200     -2.89889400
Li      1.75065600      0.51684700      3.15947400
Li      0.94695100      3.86692300      3.46006600
Li      3.27950100     -2.48684000     -3.42376300
Li     -1.47921400      1.18576000     -2.95148100
Li     -4.08409200     -1.93330100      3.66062900
Li      4.87574100     -4.00187000      3.48793900
Li     -6.11565400     -1.96395100     -3.48899800
