   109
 Generated by Multiwfn
C      -0.15344900     -0.32413400      1.40480100
C       0.99045900     -1.18030200      0.82587900
C       0.96221400     -1.18659000     -0.57338300
C      -0.18860200     -0.34554700     -1.14052000
C       0.17328200      1.07802100      0.79533100
C       0.10292400      1.06542800     -0.60437500
C      -1.54098800     -0.70301400     -0.55759300
C      -1.51412300     -0.76975400      0.83377900
C      -2.70391300     -1.03762200      1.57095300
C      -2.72507900     -0.63150300     -1.35036000
C       2.08526700     -1.55980500     -1.34189700
C       2.15849300     -1.53737800      1.56416400
C       0.72708400      2.19552100      1.44908800
C       1.06098900      3.32253700      0.62481700
C       0.86509200      3.33297500     -0.76801000
C       0.39342600      2.16121800     -1.43994800
O       1.02107100      2.18733100      2.76981900
O       0.29089500      1.99843900     -2.77753600
O      -2.75196100     -1.18275400      2.87508900
O      -2.68325600     -0.18687600     -2.59367600
O       2.32414300     -1.21608000      2.82019800
O       2.16030800     -1.29216000     -2.68277400
S       1.44181100      4.73499600     -1.74338100
S       1.96964200      4.63586600      1.46314100
C       1.55241400      6.17259200      0.66488100
C       1.36818300      6.22169100     -0.71189000
C       1.60315900      7.37718700      1.49422300
C       1.23043900      7.46252200     -1.42703400
O       1.69953300      7.31087400      2.73039800
O       0.96312300      7.46442500     -2.68759000
C       1.59616900      8.68332700      0.75480800
C       1.44434900      8.71754400     -0.67830400
C       1.76910700      9.88245700      1.44686000
C       1.52511800      9.95189900     -1.33655000
C       1.84604700     11.14660300      0.79178200
C       1.75047300     11.17647300     -0.64545500
C       2.02563400     12.39077000      1.48864900
C       1.90281500     12.44381400     -1.30775500
C       2.14488100     13.60116200      0.82114600
C       2.10918400     13.62252100     -0.60739500
C      -3.91890400     -0.93462200     -0.62527900
C      -3.89802600     -1.11283300      0.77026500
S      -5.40952500     -1.18207300      1.74601300
S      -5.50520000     -0.82713200     -1.47821300
C     -12.32301800     -4.61182600      1.34871700
C     -12.31945100     -4.54159800     -1.45005100
C     -13.43759400     -5.01449300     -0.77761700
C     -13.43849100     -5.04210600      0.65106300
C      -6.67762700     -1.89393500     -0.60110700
C      -6.65202000     -2.00706600      0.78598100
C      -7.71361400     -2.66943800      1.53717000
C      -7.70818900     -2.49836600     -1.40586400
O      -7.67294900     -2.77708800      2.77467100
O      -7.62801400     -2.49063900     -2.69386300
C      -8.87059300     -3.08690700     -0.70808300
C      -8.87880200     -3.15514100      0.73187500
C      -9.99933800     -3.66628700      1.38237000
C      -9.99018300     -3.55867400     -1.41067700
C     -11.14651700     -4.07383600     -0.75670700
C     -11.15153000     -4.12047400      0.68381300
C       3.20126400     -2.14036900      0.77825800
C       3.18745300     -2.10722000     -0.62451900
S       4.67194100     -2.50321000     -1.58255500
S       4.70946000     -2.61934200      1.63117800
C       5.47783500     -3.91670100      0.63881100
C       5.46610900     -3.87346800     -0.75170800
C       6.22790600     -4.81244600     -1.57364000
C       6.19339700     -4.92641000      1.37479600
O       6.06797700     -5.01993700      2.65312600
O       6.18002800     -4.78735700     -2.81394600
C       7.09643000     -5.81491200      0.61798300
C       7.11651400     -5.76481400     -0.82264000
C       7.99201800     -6.60183000     -1.51580200
C       7.96285200     -6.69596000      1.27744300
C       8.87903400     -7.53285000      0.58195300
C       8.89081200     -7.49263100     -0.85837000
C       9.81573000     -8.34472200     -1.55473600
C      10.69607700     -9.18302500     -0.88598500
C      10.69486300     -9.20805000      0.54287000
C       9.80616200     -8.40918100      1.24419700
H      -0.20019400     -0.33457200      2.50112700
H      -0.23454600     -0.43756100     -2.23353000
H       1.86527900      9.82730500      2.53398700
H       1.42427000      9.95798800     -2.42411300
H       2.06913000     12.36318500      2.58096900
H       1.86035500     12.45933200     -2.40041400
H       2.26484800     14.56639300      1.36581200
H       2.25844600     14.59456300     -1.12897100
H     -12.31934200     -4.63488600      2.44204200
H     -12.31244200     -4.51256600     -2.54348300
H     -14.34722800     -5.37838200     -1.31240100
H     -14.34078800     -5.40661300      1.18237700
H      -9.97468900     -3.69984600      2.47426600
H      -9.96547500     -3.50532300     -2.50152700
H       7.98230500     -6.54677200     -2.60721000
H       7.93423200     -6.71655900      2.36910800
H       9.81397100     -8.31533900     -2.64796500
H      11.41110300     -9.84362400     -1.42874800
H      11.41754700     -9.87177500      1.06603500
H       9.80042200     -8.42910700      2.33761800
Li      1.49425200      0.47823200     -2.85592300
Li      1.69431800      0.45116700      3.18627800
Li      1.05195300      3.84085000      3.46973300
Li      3.19621700     -2.55829300     -3.42245700
Li     -1.47884900      1.14394600     -2.91399400
Li     -4.16441400     -1.83715700      3.64257500
Li      4.80854200     -4.08052900      3.48491400
Li     -6.12361200     -1.94439300     -3.45298200
Li      0.49689100      5.99368400     -3.53417300
