    83
 Generated by Multiwfn
C       0.18576600     -0.01471000     -1.39267600
C      -0.59808300     -1.19044900     -0.78673100
C      -0.65572900     -1.16813300      0.57815700
C       0.13724400     -0.01227100      1.19077600
C      -0.51019700      1.21546600     -0.78729800
C      -0.56910700      1.19815700      0.57755000
C       1.53035400     -0.06272900      0.59885700
C       1.55835000     -0.06400600     -0.74942900
C       2.82879700     -0.10810400     -1.51588700
C       2.75539700     -0.10451500      1.43234900
C      -1.61071900     -1.94319500      1.34337300
C      -1.32543300     -2.19323500     -1.56347100
C      -1.16125000      2.26928200     -1.56422300
C      -1.88319600      3.27977500     -0.73327600
C      -1.98676000      3.20380700      0.62992300
C      -1.46367000      2.04218700      1.34279800
O      -1.13091300      2.34838100     -2.78556800
O      -1.80884500      1.74618000      2.52030800
O       2.87080600     -0.11014300     -2.72910300
O       2.72126600     -0.10255300      2.64966300
O      -1.30073700     -2.27460500     -2.78485300
O      -1.93351500     -1.62238400      2.52082900
O      -2.67777800      4.13218500      1.36519800
O      -2.44295000      4.28784900     -1.44133200
C      -3.01459200      5.31779100     -0.73108400
C      -3.10944600      5.25352100      0.69043600
C      -3.48296800      6.40923400     -1.41523100
C      -3.63240400      6.31327900      1.39124400
C      -4.04863400      7.51498200     -0.71897400
C      -4.10727200      7.47831600      0.71381300
C      -4.54474400      8.65569400     -1.40127500
C      -4.62624500      8.60820800      1.40422800
C      -5.05541200      9.73134100     -0.70207300
C      -5.08213700      9.71748900      0.71293300
C       4.03541300     -0.14833200      0.67355300
C       4.06639100     -0.14971800     -0.68420300
O       5.22206700     -0.18882500     -1.39178700
O       5.16179900     -0.18598000      1.43507000
C       6.36474700     -0.22410700      0.76009300
C       6.39270600     -0.22537900     -0.66586200
C       7.58627400     -0.26295400     -1.33724000
C       7.53543500     -0.26076800      1.47493700
C       8.79766700     -0.30052800      0.80863600
C       8.82015900     -0.30147000     -0.62530500
C      10.07019500     -0.34056600     -1.29385100
C      10.03101000     -0.33897500      1.51378500
C      11.23604100     -0.37663300      0.83471900
C      11.25191500     -0.37727900     -0.57996200
C      -2.12111000     -3.14658800     -0.73258400
C      -2.21892300     -3.06267000      0.63057800
O      -2.97768900     -3.93642300      1.36601800
O      -2.75498900     -4.10993200     -1.44057700
C      -3.40497700     -5.09232600     -0.73041900
C      -3.49480300     -5.02088900      0.69110300
C      -4.09867100     -6.03678400      1.39181500
C      -3.95696100     -6.14398100     -1.41461700
C      -4.60723600     -7.20230300     -0.71847300
C      -4.66285400     -7.16124400      0.71431500
C      -5.26866100     -8.24707500      1.40466400
C      -5.19112600     -8.30069000     -1.40082300
C      -5.78457600     -9.33307300     -0.70168700
C      -5.81013900     -9.31715700      0.71332200
H       0.20411800     -0.01555800     -2.48603000
H       0.17185400     -0.01284900      2.28423700
H      -3.40213500      6.41790400     -2.50355700
H      -3.67971700      6.24907600      2.47990600
H      -4.51283300      8.66984800     -2.49346400
H      -4.65395700      8.58835000      2.49666700
H      -5.44315200     10.59773800     -1.24293300
H      -5.46144100     10.59852500      1.24591200
H       7.57336800     -0.26274500     -2.42852100
H       7.48296500     -0.25882900      2.56516700
H      10.08317900     -0.34110000     -2.38647000
H      10.01133100     -0.33820900      2.60646600
H      12.18758600     -0.40620200      1.37904400
H      12.20593700     -0.40698500     -1.10978300
H      -4.14103900     -5.96906800      2.48046900
H      -3.87707300     -6.15884200     -2.50294800
H      -5.29478500     -8.22514900      2.49710300
H      -5.16041200     -8.31724900     -2.49301400
H      -6.23909200    -10.16650400     -1.24248900
H      -6.25744800    -10.16564100      1.24635000
Li     -1.98679100      0.06644800      3.23638000
