    84
 Generated by Multiwfn
C      -0.26047000     -0.01403600      1.28786400
C       0.55195300     -1.17658000      0.69420000
C       0.55204600     -1.17647500     -0.69376000
C      -0.26034400     -0.01404000     -1.28745200
C       0.49720900      1.18500400      0.69417600
C       0.49731300      1.18490500     -0.69376400
C      -1.63968500     -0.04484800     -0.67443500
C      -1.63970900     -0.04485000      0.67470000
C      -2.89497400     -0.07025400      1.47155700
C      -2.89486300     -0.07023900     -1.47141900
C       1.52346300     -1.91428500     -1.44752100
C       1.52316400     -1.91475700      1.44787600
C       1.43180900      1.96872800      1.44796500
C       2.06919600      3.05619300      0.68749400
C       2.06941600      3.05597900     -0.68731500
C       1.43208800      1.96831400     -1.44764400
O       1.73946200      1.71206200      2.65299700
O       1.73996200      1.71106200     -2.65248600
O      -2.90020700     -0.07032600      2.68798100
O      -2.89989500     -0.07028400     -2.68784600
O       1.81847800     -1.64349500      2.65280600
O       1.81901900     -1.64244400     -2.65222700
O       2.74884000      4.00668600     -1.40518100
O       2.74858200      4.00696400      1.40528300
C       3.21395700      5.10402700      0.71361000
C       3.21409800      5.10389000     -0.71363500
C       3.67723300      6.20089000      1.40357600
C       3.67749400      6.20067400     -1.40368500
C       4.16512100      7.35702400      0.71732000
C       4.16523600      7.35694500     -0.71752000
C       4.63955300      8.51358200      1.40074800
C       4.63973900      8.51347800     -1.40098000
C       5.09081200      9.62632900      0.70888700
C       5.09088900      9.62630700     -0.70915100
C      -4.16162900     -0.09551900     -0.67879900
C      -4.16167400     -0.09551600      0.67878100
O      -5.30836000     -0.11802000      1.41177000
O      -5.30826400     -0.11801300     -1.41188300
C      -6.49978700     -0.14007400     -0.71345700
C      -6.49983200     -0.14008200      0.71328600
C      -7.68647600     -0.16200200      1.40452700
C      -7.68637200     -0.16198000     -1.40478700
C      -8.93976400     -0.18508800     -0.71732300
C      -8.93982100     -0.18510300      0.71697100
C     -10.18668100     -0.20800200      1.40185000
C     -10.18656400     -0.20796600     -1.40230100
C     -11.38514700     -0.22993600     -0.70867500
C     -11.38521100     -0.22995700      0.70812800
C       2.21203400     -2.97047900      0.68753000
C       2.21224500     -2.97024600     -0.68728000
O       2.93696600     -3.88683100     -1.40523400
O       2.93668000     -3.88717400      1.40540100
C       3.45705900     -4.95918700      0.71363200
C       3.45722200     -4.95900700     -0.71361500
C       3.97592600     -6.03079300     -1.40363900
C       3.97561200     -6.03110100      1.40354600
C       4.52190200     -7.16088100      0.71731000
C       4.52205000     -7.16074000     -0.71752500
C       5.05525300     -8.29144100     -1.40099300
C       5.05498600     -8.29168000      1.40069000
C       5.56282200     -9.37982300      0.70883100
C       5.56294200     -9.37971600     -0.70922400
H      -0.31321500     -0.01522700      2.38108000
H      -0.31285200     -0.01525300     -2.38060200
H       3.66112200      6.17385900      2.49484300
H       3.66158100      6.17348700     -2.49495400
H       4.63734400      8.51005600      2.49391700
H       4.63766300      8.50986300     -2.49415000
H       5.45047800     10.51957400      1.24436000
H       5.45059800     10.51961100     -1.24455700
H      -7.65419200     -0.16138400      2.49565200
H      -7.65402500     -0.16134600     -2.49590900
H     -10.18284500     -0.20793600      2.49481700
H     -10.18265300     -0.20787100     -2.49526700
H     -12.34489100     -0.24748100     -1.24476500
H     -12.34500700     -0.24752500      1.24412100
H       3.95876100     -6.00437900     -2.49491000
H       3.95820600     -6.00490300      2.49481500
H       5.05304500     -8.28788600     -2.49416600
H       5.05257600     -8.28830700      2.49386100
H       5.96788100    -10.25354900      1.24424800
H       5.96808800    -10.25339700     -1.24466300
Li      1.84497600      0.03586600     -3.37884200
Li      1.84342500      0.03578300      3.37759500
