    85
 Generated by Multiwfn
C      -0.24908200      0.02169300      1.25783800
C       0.55088500     -1.16307300      0.67515000
C       0.55602100     -1.15670400     -0.72970500
C      -0.25056000      0.02431400     -1.30845800
C       0.46640300      1.24679000      0.66496000
C       0.46883800      1.24422100     -0.71507100
C      -1.63322000     -0.02614700     -0.69830300
C      -1.63402500     -0.02983400      0.65085500
C      -2.88072800     -0.08381500      1.45349900
C      -2.89057000     -0.05666900     -1.49012900
C       1.47255700     -1.90156600     -1.51811000
C       1.42051100     -1.97832900      1.40398400
C       1.38764500      2.04034900      1.42669200
C       2.03169400      3.11422200      0.67652900
C       2.02843800      3.12282800     -0.70381600
C       1.38392700      2.05787600     -1.47217600
O       1.68746500      1.74747100      2.63504700
O       1.67861900      1.80066200     -2.68330900
O      -2.88139300     -0.10410900      2.67109600
O      -2.90807400     -0.03960900     -2.70568300
O       1.67981900     -1.84221800      2.73642000
O       1.71550600     -1.63646500     -2.76019000
O       2.71346200      4.08107200     -1.41222500
O       2.72308900      4.06108400      1.39588700
C       3.18157400      5.16169400      0.71199800
C       3.17716400      5.17127000     -0.71571800
C       3.64891900      6.25389800      1.40775600
C       3.64139900      6.27233700     -1.39920600
C       4.13783300      7.41248200      0.72825800
C       4.13420800      7.42138200     -0.70677400
C       4.61764800      8.56335800      1.41763700
C       4.61126000      8.58026200     -1.38394800
C       5.07127000      9.67831900      0.73168200
C       5.06813800      9.68628700     -0.68626200
C      -4.15470000     -0.10460100     -0.69018900
C      -4.15053800     -0.10811900      0.66639900
O      -5.29609600     -0.14465000      1.40409800
O      -5.30414900     -0.13040500     -1.41964500
C      -6.49225700     -0.15201900     -0.71801800
C      -6.48823400     -0.15953600      0.70909100
C      -7.67352200     -0.18057700      1.40296300
C      -7.68081300     -0.16656300     -1.40614200
C      -8.93205600     -0.18872600     -0.71559300
C      -8.92849700     -0.19598000      0.71867200
C     -10.17371400     -0.21722800      1.40639900
C     -10.18036500     -0.20302600     -1.39762600
C     -11.37707000     -0.22333000     -0.70119200
C     -11.37383900     -0.23055700      0.71545600
C       2.13012700     -2.92738300      0.62241700
C       2.15943500     -2.92787500     -0.76675000
O       2.92874400     -3.85499800     -1.45278200
O       2.90605400     -3.86680500      1.35935900
C       3.43337200     -4.94521400      0.65952100
C       3.43454700     -4.91504000     -0.76778400
C       3.96974400     -5.98890300     -1.45530300
C       3.95455700     -6.01801400      1.34542200
C       4.51788800     -7.13436200      0.65679500
C       4.52171200     -7.11633600     -0.77865600
C       5.06901500     -8.23871000     -1.47002900
C       5.06419000     -8.26270700      1.33327700
C       5.58769700     -9.33568100      0.63342200
C       5.58724200     -9.32479300     -0.78598300
H      -0.32443500      0.03096000      2.35165100
H      -0.30239300      0.02364500     -2.40090000
H       3.63576000      6.21944800      2.49888800
H       3.62256900      6.25225300     -2.49058200
H       4.61750500      8.55298700      2.51086600
H       4.60650000      8.58346100     -2.47716200
H       5.43510200     10.56700200      1.27116700
H       5.42987400     10.57984000     -1.21771100
H      -7.63849600     -0.18469800      2.49399700
H      -7.65100500     -0.16019100     -2.49730400
H     -10.16720900     -0.22239400      2.49938400
H     -10.17896700     -0.19717700     -2.49059100
H     -12.33746400     -0.23362800     -1.23535600
H     -12.33223200     -0.24647200      1.25349100
H       3.95715600     -5.95395800     -2.54628900
H       3.93731200     -6.01880500      2.43908800
H       5.06790900     -8.22641500     -2.56292300
H       5.06089500     -8.26988800      2.42677400
H       6.00661900    -10.20442100      1.16300000
H       6.00147700    -10.19146800     -1.32587200
Li      1.82878500      0.05906700     -3.34260400
Li      1.66867600     -0.02457300      3.15228600
Li      2.62144800     -3.28160000      3.12945300
