    86
 Generated by Multiwfn
C       0.25760400     -0.02033600     -1.28167500
C      -0.52942500     -1.20855400     -0.69713200
C      -0.53577200     -1.19820200      0.70703100
C       0.25787700     -0.00847200      1.28197000
C      -0.47405300      1.20852900     -0.70677200
C      -0.46734200      1.21851300      0.69742600
C       1.64293700     -0.04446800      0.67537900
C       1.64274900     -0.05313900     -0.67509300
C       2.89411800     -0.10518900     -1.47081800
C       2.89538800     -0.04976400      1.47106300
C      -1.46494200     -1.92506200      1.49817700
C      -1.40657400     -2.02304400     -1.42170500
C      -1.36336400      1.98327200     -1.49808900
C      -1.99901300      3.04371600     -0.75748200
C      -1.96497600      3.05125700      0.63413900
C      -1.30044400      2.07791700      1.42191700
O      -1.62484700      1.69689100     -2.73741400
O      -1.56443900      1.95959700      2.75474400
O       2.90777600     -0.14256500     -2.68751900
O       2.91081100     -0.01298300      2.68776300
O      -1.66420400     -1.89060300     -2.75444300
O      -1.71141200     -1.62492200      2.73731600
O      -2.69570900      4.03572900      1.36386700
O      -2.72929800      4.00680900     -1.44549500
C      -3.16616200      5.09887400     -0.76806400
C      -3.15844000      5.13799900      0.66026600
C      -3.63948900      6.19993200     -1.46013200
C      -3.61399500      6.24509800      1.33965300
C      -4.12226800      7.36242600     -0.78965400
C      -4.11336800      7.38867100      0.64581800
C      -4.60387000      8.51233300     -1.48580900
C      -4.59066600      8.55168500      1.31623500
C      -5.05523400      9.63195400     -0.80761600
C      -5.05189300      9.65044500      0.61187000
C       4.16392900     -0.10153800      0.67772600
C       4.16372600     -0.11030800     -0.67754100
O       5.31335900     -0.14674800     -1.41146300
O       5.31404900     -0.11607600      1.41162600
C       6.50285300     -0.14843000      0.71388300
C       6.50250300     -0.16430700     -0.71375900
C       7.69021600     -0.19598100     -1.40404000
C       7.69085800     -0.16658200      1.40413800
C       8.94416500     -0.20004600      0.71716200
C       8.94384900     -0.21504300     -0.71709000
C      10.19101600     -0.24808700     -1.40152200
C      10.19161300     -0.21911100      1.40159300
C      11.39036200     -0.25131300      0.70843600
C      11.39007600     -0.26590000     -0.70836700
C      -2.12175400     -2.95986100     -0.63404900
C      -2.15560600     -2.95049200      0.75761500
O      -2.93665100     -3.87305900      1.44554600
O      -2.90414200     -3.90385600     -1.36399500
C      -3.42779500     -4.97848900     -0.66037400
C      -3.43356200     -4.93895700      0.76796900
C      -3.96794900     -6.01188000      1.45988400
C      -3.94459100     -6.05837000     -1.33980500
C      -4.50754300     -7.17216900     -0.64611600
C      -4.51516800     -7.14546700      0.78935200
C      -5.06102400     -8.26642500      1.48538900
C      -5.04956700     -8.30646400     -1.31660300
C      -5.57226200     -9.37748100     -0.61236900
C      -5.57484800     -9.35879600      0.80713800
H       0.32961600     -0.01517600     -2.37494500
H       0.32957700     -0.01722300      2.37524200
H      -3.63179700      6.15814000     -2.55096800
H      -3.59257900      6.25159500      2.43324300
H      -4.60561700      8.49379600     -2.57873000
H      -4.58395100      8.56476200      2.40974500
H      -5.41828800     10.52002900     -1.35124500
H      -5.41782800     10.54558000      1.13754000
H       7.65748200     -0.20636400     -2.49512500
H       7.65861200     -0.15479900      2.49522300
H      10.18663600     -0.25921400     -2.49452300
H      10.18770500     -0.20780300      2.49459400
H      12.35045200     -0.26582600      1.24443700
H      12.34998800     -0.29138300     -1.24431800
H      -3.95820800     -5.97055000      2.55072500
H      -3.92344400     -6.06603400     -2.43339500
H      -5.06196000     -8.24779500      2.57831300
H      -5.04342200     -8.31988600     -2.41011700
H      -5.98807400    -10.25062900     -1.13807300
H      -5.98770000    -10.22496300      1.35070600
Li     -1.66225400      0.12043600      3.17962600
Li     -1.66525900     -0.04898400     -3.17973500
Li     -2.62086100     -3.31386500     -3.13588900
Li     -2.44390300      3.43196400      3.13603000
