    87
 Generated by Multiwfn
C       0.16826700      0.25292300     -1.40996000
C      -0.22568300     -1.12203500     -0.80963400
C      -0.15325300     -1.13241400      0.58952100
C       0.21429900      0.25061100      1.13776100
C      -0.89820100      1.18531000     -0.82055700
C      -0.86111300      1.17724600      0.57994800
C       1.56456500      0.55614800      0.53896700
C       1.53640000      0.61069500     -0.83130000
C       2.75177100      0.82646100     -1.59658500
C       2.76532600      0.42715900      1.31896300
C      -0.48073900     -2.21291900      1.42588700
C      -0.80836000     -2.20838100     -1.46900400
C      -2.02817700      1.62509400     -1.56230300
C      -2.94377000      2.41976300     -0.77920300
C      -2.88682400      2.40050800      0.61319600
C      -1.92725200      1.65887200      1.34607000
O      -2.23704900      1.26209900     -2.79087500
O      -2.11476200      1.33700600      2.66578800
O       2.79545700      0.86477400     -2.83970700
O       2.71417500     -0.09568100      2.49787300
O      -1.17523800     -2.19106200     -2.76922700
O      -0.38610700     -2.03900200      2.76004800
O      -3.88361900      3.07969100      1.38273700
O      -3.95867900      3.11946200     -1.42178200
C      -4.67803000      4.02323900     -0.70755200
C      -4.65889600      4.02784800      0.72140100
C      -5.45749600      4.95831200     -1.36451100
C      -5.40327700      4.94373000      1.43471900
C      -6.24285400      5.91686900     -0.65950400
C      -6.22295300      5.91517400      0.77625800
C      -7.04106300      6.89414100     -1.32623000
C      -7.00786600      6.88364500      1.47435100
C      -7.78513900      7.82469700     -0.62234500
C      -7.77488400      7.82139400      0.79829400
C       3.97299200      0.81945800      0.61729000
C       3.95688500      0.98673300     -0.75545000
O       5.10734800      1.28758200     -1.44466900
O       5.15074500      0.94704200      1.34216600
C       6.25208500      1.44341600      0.68985700
C       6.23506600      1.58340100     -0.73274800
C       7.35965100      2.01506000     -1.39954800
C       7.38387000      1.80087300      1.39635700
C       8.56218600      2.28023900      0.73491100
C       8.55273700      2.36249700     -0.69816500
C       9.73206700      2.79414400     -1.36822400
C       9.74295900      2.68776100      1.42851100
C      10.87155700      3.13100400      0.75031700
C      10.86810300      3.16190600     -0.66801200
C      -1.05733900     -3.35041200     -0.65466800
C      -0.91787400     -3.38917100      0.73653600
O      -1.22554300     -4.54577500      1.44334700
O      -1.51610600     -4.49670400     -1.36366900
C      -1.66567600     -5.68632300     -0.66422300
C      -1.54411300     -5.68506100      0.75833900
C      -1.76095000     -6.87011400      1.44229800
C      -1.94096800     -6.85014600     -1.34796400
C      -2.14784200     -8.08824200     -0.66558800
C      -2.07792300     -8.09166100      0.76801300
C      -2.32622200     -9.32316200      1.45232800
C      -2.41581900     -9.31281500     -1.34676000
C      -2.63135300    -10.49398400     -0.65558300
C      -2.60480400    -10.49597300      0.76532600
H       0.22361000      0.27332700     -2.50582000
H       0.27664000      0.32622200      2.23040300
H      -5.45384800      4.94780300     -2.45609200
H      -5.36652900      4.92964600      2.52783500
H      -7.05023500      6.89776700     -2.41922300
H      -6.99113400      6.87658400      2.56795200
H      -8.38856400      8.57787500     -1.15327500
H      -8.38306300      8.57463400      1.33563300
H       7.31502200      2.09499300     -2.48741100
H       7.36685200      1.70395800      2.48397600
H       9.72435200      2.83145400     -2.46090300
H       9.74109300      2.64826200      2.52144800
H      11.78048100      3.47184100      1.28360300
H      11.77497700      3.47507500     -1.20527500
H      -1.67787400     -6.85343300      2.53088100
H      -2.00842000     -6.82707400     -2.43945900
H      -2.29264400     -9.32395700      2.54497100
H      -2.44590600     -9.30541900     -2.43984700
H      -2.81896600    -11.44132600     -1.19183100
H      -2.81358000    -11.44448300      1.29707200
Li     -1.48810600     -0.46141900      2.86484700
Li     -1.66773400     -0.38945400     -3.24436200
Li     -1.60860700     -3.85195900     -3.15151800
Li     -3.38275500      2.48401900      3.11090200
Li      1.42665100     -1.37795600      2.90691300
