    82
 Generated by Multiwfn (http://sobereva.com/multiwfn)
C       0.00593700     -0.00952700      1.30025300
C      -1.04234900     -0.92882300      0.67233400
C      -1.04235000     -0.92882100     -0.67233300
C       0.00593600     -0.00952400     -1.30025200
C       1.32627400     -0.45744600      0.67233200
C       1.32627400     -0.45744500     -0.67233200
C      -0.26623100      1.35803600     -0.67234400
C      -0.26623100      1.35803500      0.67234800
C      -0.51195300      2.58394400      1.45614700
C      -0.51195400      2.58394700     -1.45614300
C      -1.98150600     -1.75416500     -1.45615200
C      -1.98150300     -1.75417000      1.45615300
C       2.51087400     -0.85738800      1.45616800
C       3.72620800     -1.27029900      0.67831300
C       3.72620900     -1.27030000     -0.67831400
C       2.51087200     -0.85738700     -1.45617000
O       2.51496600     -0.85624100      2.67316800
O       2.51496300     -0.85624200     -2.67316900
O      -0.51563700      2.58684000      2.67314100
O      -0.51564400      2.58683900     -2.67313800
O      -1.98125100     -1.75981000      2.67314300
O      -1.98125400     -1.75980600     -2.67314200
S       5.02948600     -1.71180300     -1.79775100
S       5.02949000     -1.71180200      1.79775100
C       6.32887800     -2.16607700      0.67716600
C       6.32887900     -2.16607800     -0.67716700
C       7.53510400     -2.58630500      1.45560800
C       7.53510100     -2.58630700     -1.45561000
O       7.49654200     -2.57099300      2.67402700
O       7.49653800     -2.57099700     -2.67403000
C       8.74369600     -3.00894100      0.70284100
C       8.74369500     -3.00894200     -0.70284400
C       9.88712400     -3.40848700      1.40228700
C       9.88712100     -3.40848800     -1.40229200
C      11.02603800     -3.80669200      0.70006000
C      11.02603700     -3.80669300     -0.70006500
C      -0.76189400      3.84293600     -0.67830700
C      -0.76189300      3.84294000      0.67830900
S      -1.03136000      5.19233400      1.79776100
S      -1.03136600      5.19233600     -1.79776100
C      -1.28370100      6.54551300     -0.67716700
C      -1.28369900      6.54551600      0.67716600
C      -1.51956000      7.80087900      1.45558900
C      -1.51956900      7.80087900     -1.45559100
O      -1.51482000      7.75955900      2.67400700
O      -1.51483300      7.75955900     -2.67400800
C      -1.75309300      9.05976300     -0.70284800
C      -1.75308900      9.05976300      0.70284800
C      -1.97422700     10.25063200      1.40229000
C      -1.97423600     10.25063200     -1.40228900
C      -2.19414100     11.43694200     -0.70006000
C      -2.19413700     11.43694200      0.70006200
C      -2.94875500     -2.59798900      0.67831600
C      -2.94875700     -2.59798800     -0.67831500
S      -3.98482200     -3.50359000     -1.79770700
S      -3.98482000     -3.50359400      1.79770900
C      -5.04315000     -4.38385600      0.67716700
C      -5.04315200     -4.38385500     -0.67716600
C      -6.02377700     -5.20236100     -1.45559600
C      -6.02377500     -5.20236500      1.45559800
O      -5.98875400     -5.17960800      2.67400600
O      -5.98876000     -5.17959800     -2.67400500
C      -7.00978100     -6.01914100      0.70284700
C      -7.00978300     -6.01913800     -0.70284600
C      -7.94240700     -6.79198600     -1.40228200
C      -7.94240400     -6.79199100      1.40228100
C      -8.87186600     -7.56127800      0.70006100
C      -8.87186800     -7.56127500     -0.70006200
H       0.00598600     -0.00964600      2.39363500
H       0.00598400     -0.00964100     -2.39363400
H       9.86043600     -3.39899700      2.49309200
H       9.86043200     -3.39900000     -2.49309700
H      11.91928800     -4.11896400      1.24565300
H      11.91928600     -4.11896500     -1.24566000
H      -1.96934800     10.22278100      2.49310000
H      -1.96936300     10.22278000     -2.49309900
H      -2.36665900     12.36734200     -1.24565500
H      -2.36665100     12.36734200      1.24565800
H      -7.92038600     -6.77420700     -2.49309100
H      -7.92038100     -6.77421600      2.49309100
H      -9.60077300     -8.16468100      1.24566200
H      -9.60077600     -8.16467600     -1.24566300
