   164
 Generated by Multiwfn (http://sobereva.com/multiwfn)
C       6.40645400     -0.00579500     -1.22921300
C       6.95403600      1.27564800     -0.60871100
C       6.98100000      1.27151700      0.73562700
C       6.46411700     -0.01743100      1.37067400
C       7.27173900     -1.11455400     -0.62552100
C       7.30192300     -1.12032200      0.71881900
C       5.06956900     -0.21590300      0.77346200
C       5.04017300     -0.20219800     -0.57042800
C       3.79233200     -0.41183300     -1.32586500
C       3.86676900     -0.49755500      1.58243100
C       7.44990500      2.43337200      1.50935500
C       7.40950500      2.43142800     -1.40007200
C       8.01720500     -2.10120200     -1.43047700
C       8.81416700     -3.12410000     -0.67482200
C       8.84543500     -3.12934400      0.68163900
C       8.08469300     -2.11222700      1.48101600
O       7.99549600     -2.09518500     -2.64732200
O       8.12116100     -2.11389200      2.69747300
O       3.73541000     -0.29907800     -2.53633100
O       3.88300000     -0.48071900      2.79827700
O       7.38783100      2.43840000     -2.61717200
O       7.45270300      2.45046800      2.72625300
S       9.70863300     -4.22533100      1.77697600
S       9.62533900     -4.21189900     -1.81704900
C      10.44856800     -5.33826500     -0.71959900
C      10.47996000     -5.34326100      0.63426300
C      11.17333500     -6.37437400     -1.51887500
C      11.24100300     -6.38496600      1.39149800
O      11.12653800     -6.33202500     -2.73634000
O      11.25088200     -6.35134400      2.61008800
C      11.92992400     -7.42237900     -0.78729300
C      11.96257000     -7.42751900      0.61800900
C      12.61369200     -8.40808200     -1.50644400
C      12.67878700     -8.41831800      1.29748000
C      13.32651200     -9.39557200     -0.82408900
C      13.35900000     -9.40069500      0.57561700
C       2.61772400     -0.85213500      0.82809700
C       2.58382300     -0.80323600     -0.52821000
S       1.24107300     -1.14975000     -1.62476100
S       1.34391900     -1.32443600      1.96429700
C       0.02547200     -1.75387900      0.86189300
C      -0.01585600     -1.68945700     -0.49031600
C      -1.22428000     -2.11134300     -1.25444600
C      -1.14209200     -2.26519400      1.65250700
O      -1.23434300     -2.01191800     -2.46946800
O      -1.06521300     -2.32614800      2.86524600
C      -2.34260200     -2.72597900      0.90629000
C      -2.37567400     -2.66476100     -0.49692800
C      -3.47381500     -3.17724200     -1.19733700
C      -3.41834300     -3.28565500      1.60634600
C      -4.49571400     -3.82773800      0.90324300
C      -4.51858900     -3.78035300     -0.49657100
C       7.88274300      3.62938500     -0.63215400
C       7.90156300      3.63099400      0.72266900
S       8.34762100      4.93821000      1.83447700
S       8.30634900      4.93162700     -1.76062900
C       8.74484100      6.24305300     -0.64732400
C       8.76122700      6.24526100      0.70621600
C       9.16153800      7.46300100      1.47840500
C       9.12632500      7.45820300     -1.43307500
O       9.09326200      7.41603400     -2.65083500
O       9.15835300      7.42504700      2.69672200
C       9.53233600      8.67605100     -0.68717700
C       9.54933200      8.67836800      0.71872400
C       9.93216400      9.83144900      1.41171700
C       9.89827900      9.82680900     -1.39306900
C      10.27995400     10.97519300     -0.69709100
C      10.29686100     10.97750700      0.70290000
H       6.38087500      0.00112900     -2.32218000
H       6.48839400     -0.02226900      2.46373600
H      12.57251300     -8.38077000     -2.59647400
H      12.68819700     -8.39892900      2.38841800
H      13.86028800    -10.16603500     -1.38491100
H      13.91807400    -10.17514900      1.10543700
H      -3.47216800     -3.11994200     -2.28706600
H      -3.37568300     -3.31200500      2.69618500
H      -5.30909500     -4.30836000      1.45010200
H      -5.34514300     -4.23311600     -1.04661300
H       9.93640000      9.80689600      2.50257700
H       9.87618300      9.79863600     -2.48362700
H      10.56598200     11.87419800     -1.24750600
H      10.59606000     11.87832200      1.24326100
C      -6.46481200      0.01685500     -1.37066700
C      -5.07030600      0.21521900     -0.77330000
C      -5.04105900      0.20148300      0.57059400
C      -6.40743500      0.00517700      1.22922500
C      -6.98183200     -1.27208400     -0.73570100
C      -6.95502500     -1.27623600      0.60864500
C      -7.27257100      1.11399400      0.62545200
C      -7.30259900      1.11978300     -0.71888600
C      -8.08531200      2.11167700     -1.48115900
C      -8.01817100      2.10059600      1.43034600
C      -3.79323500      0.41082800      1.32613900
C      -3.86738000      0.49664100     -1.58216600
C      -7.45034900     -2.43407400     -1.50947300
C      -7.90222000     -3.63164900     -0.72284600
C      -7.88370800     -3.62998600      0.63198100
C      -7.41052600     -2.43204300      1.39994700
O      -7.45265800     -2.45130700     -2.72637200
O      -7.38889800     -2.43905200      2.61704700
O      -8.12189100      2.11316300     -2.69761300
O      -7.99679100      2.09440600      2.64719400
O      -3.88352200      0.47982700     -2.79801300
O      -3.73642700      0.29801400      2.53660500
S      -8.30758100     -4.93217100      1.76041600
S      -8.34796000     -4.93893100     -1.83470800
C      -8.76244600     -6.24572800     -0.70647300
C      -8.74642100     -6.24344200      0.64707200
C      -9.16304100     -7.46335300     -1.47869400
C      -9.12865600     -7.45837600      1.43279300
O      -9.15940500     -7.42550600     -2.69701400
O      -9.09586700     -7.41615900      2.65055800
C      -9.55161800     -8.67848800     -0.71904600
C      -9.53503300     -8.67608100      0.68686100
C      -9.93477100     -9.83144400     -1.41207000
C      -9.90170900     -9.82662100      1.39272600
C     -10.30020800    -10.97728300     -0.70327900
C     -10.28371300    -10.97487800      0.69671600
C      -8.81491300      3.12360600      0.67461000
C      -8.84601600      3.12887700     -0.68185500
S      -9.70906800      4.22492000     -1.77724600
S      -9.62623900      4.21140900      1.81672200
C     -10.44700200      5.33948000      0.71917800
C     -10.47821000      5.34450900     -0.63468900
C     -11.23716700      6.38764500     -1.39204700
C     -11.16991900      6.37696500      1.51834600
O     -11.24726300      6.35380500     -2.61062700
O     -11.12365800      6.33434600      2.73582200
C     -11.92415000      7.42658000      0.78663600
C     -11.95658900      7.43176500     -0.61867200
C     -12.67063800      8.42404800     -1.29826000
C     -12.60595900      8.41372300      1.50567300
C     -13.31658000      9.40271600      0.82320100
C     -13.34885900      9.40788400     -0.57651000
C      -2.61831900      0.85092500     -0.82771600
C      -2.58457500      0.80198800      0.52859400
S      -1.24182000      1.14815200      1.62526800
S      -1.34431800      1.32297400     -1.96378200
C      -0.02599600      1.75248800     -0.86123200
C       0.01520000      1.68795400      0.49097500
C       1.22356300      2.10979800      1.25524300
C       1.14155300      2.26405800     -1.65168700
O       1.06478300      2.32510300     -2.86442900
O       1.23355100      2.01020400      2.47025100
C       2.34193600      2.72494500     -0.90531900
C       2.37499700      2.66335300      0.49788200
C       3.47314000      3.17562400      1.19844300
C       3.41759700      3.28498900     -1.60520500
C       4.49492600      3.82695600     -0.90193800
C       4.51788500      3.77899600      0.49785300
H      -6.48895600      0.02169700     -2.46373200
H      -6.38198200     -0.00176800      2.32219500
H      -9.93867100     -9.80696700     -2.50293300
H      -9.87991300     -9.79838500      2.48328800
H     -10.59966200    -11.87799800     -1.24366600
H     -10.57031800    -11.87371100      1.24711100
H     -12.67996500      8.40464000     -2.38919800
H     -12.56502200      8.38632200      2.59571000
H     -13.84880300     10.17431600      1.38393500
H     -13.90621600     10.18351200     -1.10642200
H       3.47152100      3.11795500      2.28815200
H       3.37492200      3.31168300     -2.69503500
H       5.30819300      4.30793900     -1.44865700
H       5.34451500      4.23146400      1.04802100
